28

Ga        2.9041903617       -3.0479480000       -0.0000000000
Sb        4.4285046488       -1.5239730000        1.5239750000
Ga       -0.1540269768        0.0000020001       -0.0000000001
Sb        1.3807367924        1.5239770000        1.5239750000
Ga        9.0020001001       -3.0479480000       -0.0000000000
Sb       10.5182323058       -1.5239730000        1.5239750000
Ga        5.9528374791        0.0000020000       -0.0000000000
Sb        7.4771068374        1.5239770000        1.5239750000
In       15.2534273366       -3.0479480000        0.0000000000
As       16.7580060929       -1.5239730000        1.5239750000
In       12.2515048686        0.0000020000       -0.0000000000
As       13.7482559090        1.5239770000        1.5239750000
In       21.2719677449       -3.0479480000       -0.0000000000
As       22.7766493604       -1.5239730000        1.5239750000
In       18.2626422096        0.0000020000        0.0000000000
As       19.7672465386        1.5239770000        1.5239750000
In       27.2905969638       -3.0479480000       -0.0000000000
As       28.7952353456       -1.5239730000        1.5239750000
In       24.2813322210        0.0000020000        0.0000000000
As       25.7859713179        1.5239770000        1.5239750000
In       33.3093149874       -3.0479480000       -0.0000000000
As       34.8139449774       -1.5239730000        1.5239750000
In       30.2999684698        0.0000020000       -0.0000000000
As       31.8046877499        1.5239770000        1.5239750000
In       39.3273625551       -3.0479480000       -0.0000000000
As       40.8409553567       -1.5239730001        1.5239750001
In       36.3185692380        0.0000020000       -0.0000000000
As       37.8232785353        1.5239770000        1.5239750000
