8111

Al      -19.9990015560      -17.3039291639      -15.6053784000
 N      -19.9990015560      -17.3039291639      -17.5080042000
Al      -19.9990015560      -17.3039291639      -10.6233784000
 N      -19.9990015560      -17.3039291639      -12.5260042000
Al      -19.9990015560      -17.3039291639       -5.6413784000
 N      -19.9990015560      -17.3039291639       -7.5440042000
Al      -19.9990015560      -17.3039291639       -0.6593784000
 N      -19.9990015560      -17.3039291639       -2.5620042000
Al      -19.9990015560      -17.3039291639        4.3226216000
 N      -19.9990015560      -17.3039291639        2.4199958000
Al      -19.9990015560      -17.3039291639        9.3046216000
 N      -19.9990015560      -17.3039291639        7.4019958000
Al      -19.9990015560      -17.3039291639       14.2866216000
 N      -19.9990015560      -17.3039291639       12.3839958000
Al      -19.9990015560      -17.3039291639       19.2686216000
 N      -19.9990015560      -17.3039291639       17.3659958000
Al      -19.9990015560      -11.9137870508      -15.6053784000
 N      -19.9990015560      -11.9137870508      -17.5080042000
Al      -19.9990015560      -11.9137870508      -10.6233784000
 N      -19.9990015560      -11.9137870508      -12.5260042000
Al      -19.9990015560      -11.9137870508       -5.6413784000
 N      -19.9990015560      -11.9137870508       -7.5440042000
Al      -19.9990015560      -11.9137870508       -0.6593784000
 N      -19.9990015560      -11.9137870508       -2.5620042000
Al      -19.9990015560      -11.9137870508        4.3226216000
 N      -19.9990015560      -11.9137870508        2.4199958000
Al      -19.9990015560      -11.9137870508        9.3046216000
 N      -19.9990015560      -11.9137870508        7.4019958000
Al      -19.9990015560      -11.9137870508       14.2866216000
 N      -19.9990015560      -11.9137870508       12.3839958000
Al      -19.9990015560      -11.9137870508       19.2686216000
 N      -19.9990015560      -11.9137870508       17.3659958000
Al      -19.9990015560       -6.5236449376      -15.6053784000
 N      -19.9990015560       -6.5236449376      -17.5080042000
Al      -19.9990015560       -6.5236449376      -10.6233784000
 N      -19.9990015560       -6.5236449376      -12.5260042000
Al      -19.9990015560       -6.5236449376       -5.6413784000
 N      -19.9990015560       -6.5236449376       -7.5440042000
Al      -19.9990015560       -6.5236449376       -0.6593784000
 N      -19.9990015560       -6.5236449376       -2.5620042000
Al      -19.9990015560       -6.5236449376        4.3226216000
 N      -19.9990015560       -6.5236449376        2.4199958000
Al      -19.9990015560       -6.5236449376        9.3046216000
 N      -19.9990015560       -6.5236449376        7.4019958000
Al      -19.9990015560       -6.5236449376       14.2866216000
 N      -19.9990015560       -6.5236449376       12.3839958000
Al      -19.9990015560       -6.5236449376       19.2686216000
 N      -19.9990015560       -6.5236449376       17.3659958000
Al      -19.9990015560       -1.1335028245      -15.6053784000
 N      -19.9990015560       -1.1335028245      -17.5080042000
Al      -19.9990015560       -1.1335028245      -10.6233784000
 N      -19.9990015560       -1.1335028245      -12.5260042000
Al      -19.9990015560       -1.1335028245       -5.6413784000
 N      -19.9990015560       -1.1335028245       -7.5440042000
Al      -19.9990015560       -1.1335028245       -0.6593784000
 N      -19.9990015560       -1.1335028245       -2.5620042000
Al      -19.9990015560       -1.1335028245        4.3226216000
 N      -19.9990015560       -1.1335028245        2.4199958000
Al      -19.9990015560       -1.1335028245        9.3046216000
 N      -19.9990015560       -1.1335028245        7.4019958000
Al      -19.9990015560       -1.1335028245       14.2866216000
 N      -19.9990015560       -1.1335028245       12.3839958000
Al      -19.9990015560       -1.1335028245       19.2686216000
 N      -19.9990015560       -1.1335028245       17.3659958000
Al      -19.9990015560        4.2566392887      -15.6053784000
 N      -19.9990015560        4.2566392887      -17.5080042000
Al      -19.9990015560        4.2566392887      -10.6233784000
 N      -19.9990015560        4.2566392887      -12.5260042000
Al      -19.9990015560        4.2566392887       -5.6413784000
 N      -19.9990015560        4.2566392887       -7.5440042000
Al      -19.9990015560        4.2566392887       -0.6593784000
 N      -19.9990015560        4.2566392887       -2.5620042000
Al      -19.9990015560        4.2566392887        4.3226216000
 N      -19.9990015560        4.2566392887        2.4199958000
Al      -19.9990015560        4.2566392887        9.3046216000
 N      -19.9990015560        4.2566392887        7.4019958000
Al      -19.9990015560        4.2566392887       14.2866216000
 N      -19.9990015560        4.2566392887       12.3839958000
Al      -19.9990015560        4.2566392887       19.2686216000
 N      -19.9990015560        4.2566392887       17.3659958000
Al      -19.9990015560        9.6467814018      -15.6053784000
 N      -19.9990015560        9.6467814018      -17.5080042000
Al      -19.9990015560        9.6467814018      -10.6233784000
 N      -19.9990015560        9.6467814018      -12.5260042000
Al      -19.9990015560        9.6467814018       -5.6413784000
 N      -19.9990015560        9.6467814018       -7.5440042000
Al      -19.9990015560        9.6467814018       -0.6593784000
 N      -19.9990015560        9.6467814018       -2.5620042000
Al      -19.9990015560        9.6467814018        4.3226216000
 N      -19.9990015560        9.6467814018        2.4199958000
Al      -19.9990015560        9.6467814018        9.3046216000
 N      -19.9990015560        9.6467814018        7.4019958000
Al      -19.9990015560        9.6467814018       14.2866216000
 N      -19.9990015560        9.6467814018       12.3839958000
Al      -19.9990015560        9.6467814018       19.2686216000
 N      -19.9990015560        9.6467814018       17.3659958000
Al      -19.9990015560       15.0369235150      -15.6053784000
 N      -19.9990015560       15.0369235150      -17.5080042000
Al      -19.9990015560       15.0369235150      -10.6233784000
 N      -19.9990015560       15.0369235150      -12.5260042000
Al      -19.9990015560       15.0369235150       -5.6413784000
 N      -19.9990015560       15.0369235150       -7.5440042000
Al      -19.9990015560       15.0369235150       -0.6593784000
 N      -19.9990015560       15.0369235150       -2.5620042000
Al      -19.9990015560       15.0369235150        4.3226216000
 N      -19.9990015560       15.0369235150        2.4199958000
Al      -19.9990015560       15.0369235150        9.3046216000
 N      -19.9990015560       15.0369235150        7.4019958000
Al      -19.9990015560       15.0369235150       14.2866216000
 N      -19.9990015560       15.0369235150       12.3839958000
Al      -19.9990015560       15.0369235150       19.2686216000
 N      -19.9990015560       15.0369235150       17.3659958000
Al      -18.4430015560      -19.9990002205      -15.6053784000
Al      -19.9990000000      -19.1006441000      -18.0963784000
 N      -18.4430015560      -19.9990002205      -17.5080042000
 N      -19.9990000000      -19.1006441000      -19.9990042000
Al      -16.8870015560      -17.3039291639      -15.6053784000
Al      -18.4430000000      -16.4055730434      -18.0963784000
 N      -16.8870015560      -17.3039291639      -17.5080042000
 N      -18.4430000000      -16.4055730434      -19.9990042000
Al      -18.4430015560      -19.9990002205      -10.6233784000
Al      -19.9990000000      -19.1006441000      -13.1143784000
 N      -18.4430015560      -19.9990002205      -12.5260042000
 N      -19.9990000000      -19.1006441000      -15.0170042000
Al      -16.8870015560      -17.3039291639      -10.6233784000
Al      -18.4430000000      -16.4055730434      -13.1143784000
 N      -16.8870015560      -17.3039291639      -12.5260042000
 N      -18.4430000000      -16.4055730434      -15.0170042000
Al      -18.4430015560      -19.9990002205       -5.6413784000
Al      -19.9990000000      -19.1006441000       -8.1323784000
 N      -18.4430015560      -19.9990002205       -7.5440042000
 N      -19.9990000000      -19.1006441000      -10.0350042000
Al      -16.8870015560      -17.3039291639       -5.6413784000
Al      -18.4430000000      -16.4055730434       -8.1323784000
 N      -16.8870015560      -17.3039291639       -7.5440042000
 N      -18.4430000000      -16.4055730434      -10.0350042000
Al      -18.4430015560      -19.9990002205       -0.6593784000
Al      -19.9990000000      -19.1006441000       -3.1503784000
 N      -18.4430015560      -19.9990002205       -2.5620042000
 N      -19.9990000000      -19.1006441000       -5.0530042000
Al      -16.8870015560      -17.3039291639       -0.6593784000
Al      -18.4430000000      -16.4055730434       -3.1503784000
 N      -16.8870015560      -17.3039291639       -2.5620042000
 N      -18.4430000000      -16.4055730434       -5.0530042000
Al      -18.4430015560      -19.9990002205        4.3226216000
Al      -19.9990000000      -19.1006441000        1.8316216000
 N      -18.4430015560      -19.9990002205        2.4199958000
 N      -19.9990000000      -19.1006441000       -0.0710042000
Al      -16.8870015560      -17.3039291639        4.3226216000
Al      -18.4430000000      -16.4055730434        1.8316216000
 N      -16.8870015560      -17.3039291639        2.4199958000
 N      -18.4430000000      -16.4055730434       -0.0710042000
Al      -18.4430015560      -19.9990002205        9.3046216000
Al      -19.9990000000      -19.1006441000        6.8136216000
 N      -18.4430015560      -19.9990002205        7.4019958000
 N      -19.9990000000      -19.1006441000        4.9109958000
Al      -16.8870015560      -17.3039291639        9.3046216000
Al      -18.4430000000      -16.4055730434        6.8136216000
 N      -16.8870015560      -17.3039291639        7.4019958000
 N      -18.4430000000      -16.4055730434        4.9109958000
Al      -18.4430015560      -19.9990002205       14.2866216000
Al      -19.9990000000      -19.1006441000       11.7956216000
 N      -18.4430015560      -19.9990002205       12.3839958000
 N      -19.9990000000      -19.1006441000        9.8929958000
Al      -16.8870015560      -17.3039291639       14.2866216000
Al      -18.4430000000      -16.4055730434       11.7956216000
 N      -16.8870015560      -17.3039291639       12.3839958000
 N      -18.4430000000      -16.4055730434        9.8929958000
Al      -18.4430015560      -19.9990002205       19.2686216000
Al      -19.9990000000      -19.1006441000       16.7776216000
 N      -18.4430015560      -19.9990002205       17.3659958000
 N      -19.9990000000      -19.1006441000       14.8749958000
Al      -16.8870015560      -17.3039291639       19.2686216000
Al      -18.4430000000      -16.4055730434       16.7776216000
 N      -16.8870015560      -17.3039291639       17.3659958000
 N      -18.4430000000      -16.4055730434       14.8749958000
 N      -19.9990000000      -19.1006441000       19.8569958000
 N      -18.4430000000      -16.4055730434       19.8569958000
Al      -18.4430015560      -14.6088581073      -15.6053784000
Al      -19.9990000000      -13.7105019868      -18.0963784000
 N      -18.4430015560      -14.6088581073      -17.5080042000
 N      -19.9990000000      -13.7105019868      -19.9990042000
Al      -16.8870015560      -11.9137870508      -15.6053784000
Al      -18.4430000000      -11.0154309303      -18.0963784000
 N      -16.8870015560      -11.9137870508      -17.5080042000
 N      -18.4430000000      -11.0154309303      -19.9990042000
Al      -18.4430015560      -14.6088581073      -10.6233784000
Al      -19.9990000000      -13.7105019868      -13.1143784000
 N      -18.4430015560      -14.6088581073      -12.5260042000
 N      -19.9990000000      -13.7105019868      -15.0170042000
Al      -16.8870015560      -11.9137870508      -10.6233784000
Al      -18.4430000000      -11.0154309303      -13.1143784000
 N      -16.8870015560      -11.9137870508      -12.5260042000
 N      -18.4430000000      -11.0154309303      -15.0170042000
Al      -18.4430015560      -14.6088581073       -5.6413784000
Al      -19.9990000000      -13.7105019868       -8.1323784000
 N      -18.4430015560      -14.6088581073       -7.5440042000
 N      -19.9990000000      -13.7105019868      -10.0350042000
Al      -16.8870015560      -11.9137870508       -5.6413784000
Al      -18.4430000000      -11.0154309303       -8.1323784000
 N      -16.8870015560      -11.9137870508       -7.5440042000
 N      -18.4430000000      -11.0154309303      -10.0350042000
Al      -18.4430015560      -14.6088581073       -0.6593784000
Al      -19.9990000000      -13.7105019868       -3.1503784000
 N      -18.4430015560      -14.6088581073       -2.5620042000
 N      -19.9990000000      -13.7105019868       -5.0530042000
Al      -16.8870015560      -11.9137870508       -0.6593784000
Al      -18.4430000000      -11.0154309303       -3.1503784000
 N      -16.8870015560      -11.9137870508       -2.5620042000
 N      -18.4430000000      -11.0154309303       -5.0530042000
Al      -18.4430015560      -14.6088581073        4.3226216000
Al      -19.9990000000      -13.7105019868        1.8316216000
 N      -18.4430015560      -14.6088581073        2.4199958000
 N      -19.9990000000      -13.7105019868       -0.0710042000
Al      -16.8870015560      -11.9137870508        4.3226216000
Al      -18.4430000000      -11.0154309303        1.8316216000
 N      -16.8870015560      -11.9137870508        2.4199958000
 N      -18.4430000000      -11.0154309303       -0.0710042000
Al      -18.4430015560      -14.6088581073        9.3046216000
Al      -19.9990000000      -13.7105019868        6.8136216000
 N      -18.4430015560      -14.6088581073        7.4019958000
 N      -19.9990000000      -13.7105019868        4.9109958000
Al      -16.8870015560      -11.9137870508        9.3046216000
Al      -18.4430000000      -11.0154309303        6.8136216000
 N      -16.8870015560      -11.9137870508        7.4019958000
 N      -18.4430000000      -11.0154309303        4.9109958000
Al      -18.4430015560      -14.6088581073       14.2866216000
Al      -19.9990000000      -13.7105019868       11.7956216000
 N      -18.4430015560      -14.6088581073       12.3839958000
 N      -19.9990000000      -13.7105019868        9.8929958000
Al      -16.8870015560      -11.9137870508       14.2866216000
Al      -18.4430000000      -11.0154309303       11.7956216000
 N      -16.8870015560      -11.9137870508       12.3839958000
 N      -18.4430000000      -11.0154309303        9.8929958000
Al      -18.4430015560      -14.6088581073       19.2686216000
Al      -19.9990000000      -13.7105019868       16.7776216000
 N      -18.4430015560      -14.6088581073       17.3659958000
 N      -19.9990000000      -13.7105019868       14.8749958000
Al      -16.8870015560      -11.9137870508       19.2686216000
Al      -18.4430000000      -11.0154309303       16.7776216000
 N      -16.8870015560      -11.9137870508       17.3659958000
 N      -18.4430000000      -11.0154309303       14.8749958000
 N      -19.9990000000      -13.7105019868       19.8569958000
 N      -18.4430000000      -11.0154309303       19.8569958000
Al      -18.4430015560       -9.2187159942      -15.6053784000
Al      -19.9990000000       -8.3203598737      -18.0963784000
 N      -18.4430015560       -9.2187159942      -17.5080042000
 N      -19.9990000000       -8.3203598737      -19.9990042000
Al      -16.8870015560       -6.5236449376      -15.6053784000
Al      -18.4430000000       -5.6252888171      -18.0963784000
 N      -16.8870015560       -6.5236449376      -17.5080042000
 N      -18.4430000000       -5.6252888171      -19.9990042000
Al      -18.4430015560       -9.2187159942      -10.6233784000
Al      -19.9990000000       -8.3203598737      -13.1143784000
 N      -18.4430015560       -9.2187159942      -12.5260042000
 N      -19.9990000000       -8.3203598737      -15.0170042000
Al      -16.8870015560       -6.5236449376      -10.6233784000
Al      -18.4430000000       -5.6252888171      -13.1143784000
 N      -16.8870015560       -6.5236449376      -12.5260042000
 N      -18.4430000000       -5.6252888171      -15.0170042000
Al      -18.4430015560       -9.2187159942       -5.6413784000
Al      -19.9990000000       -8.3203598737       -8.1323784000
 N      -18.4430015560       -9.2187159942       -7.5440042000
 N      -19.9990000000       -8.3203598737      -10.0350042000
Al      -16.8870015560       -6.5236449376       -5.6413784000
Al      -18.4430000000       -5.6252888171       -8.1323784000
 N      -16.8870015560       -6.5236449376       -7.5440042000
 N      -18.4430000000       -5.6252888171      -10.0350042000
Al      -18.4430015560       -9.2187159942       -0.6593784000
Al      -19.9990000000       -8.3203598737       -3.1503784000
 N      -18.4430015560       -9.2187159942       -2.5620042000
 N      -19.9990000000       -8.3203598737       -5.0530042000
Al      -16.8870015560       -6.5236449376       -0.6593784000
Al      -18.4430000000       -5.6252888171       -3.1503784000
 N      -16.8870015560       -6.5236449376       -2.5620042000
 N      -18.4430000000       -5.6252888171       -5.0530042000
Al      -18.4430015560       -9.2187159942        4.3226216000
Al      -19.9990000000       -8.3203598737        1.8316216000
 N      -18.4430015560       -9.2187159942        2.4199958000
 N      -19.9990000000       -8.3203598737       -0.0710042000
Al      -16.8870015560       -6.5236449376        4.3226216000
Al      -18.4430000000       -5.6252888171        1.8316216000
 N      -16.8870015560       -6.5236449376        2.4199958000
 N      -18.4430000000       -5.6252888171       -0.0710042000
Al      -18.4430015560       -9.2187159942        9.3046216000
Al      -19.9990000000       -8.3203598737        6.8136216000
 N      -18.4430015560       -9.2187159942        7.4019958000
 N      -19.9990000000       -8.3203598737        4.9109958000
Al      -16.8870015560       -6.5236449376        9.3046216000
Al      -18.4430000000       -5.6252888171        6.8136216000
 N      -16.8870015560       -6.5236449376        7.4019958000
 N      -18.4430000000       -5.6252888171        4.9109958000
Al      -18.4430015560       -9.2187159942       14.2866216000
Al      -19.9990000000       -8.3203598737       11.7956216000
 N      -18.4430015560       -9.2187159942       12.3839958000
 N      -19.9990000000       -8.3203598737        9.8929958000
Al      -16.8870015560       -6.5236449376       14.2866216000
Al      -18.4430000000       -5.6252888171       11.7956216000
 N      -16.8870015560       -6.5236449376       12.3839958000
 N      -18.4430000000       -5.6252888171        9.8929958000
Al      -18.4430015560       -9.2187159942       19.2686216000
Al      -19.9990000000       -8.3203598737       16.7776216000
 N      -18.4430015560       -9.2187159942       17.3659958000
 N      -19.9990000000       -8.3203598737       14.8749958000
Al      -16.8870015560       -6.5236449376       19.2686216000
Al      -18.4430000000       -5.6252888171       16.7776216000
 N      -16.8870015560       -6.5236449376       17.3659958000
 N      -18.4430000000       -5.6252888171       14.8749958000
 N      -19.9990000000       -8.3203598737       19.8569958000
 N      -18.4430000000       -5.6252888171       19.8569958000
Al      -18.4430015560       -3.8285738810      -15.6053784000
Al      -19.9990000000       -2.9302177605      -18.0963784000
 N      -18.4430015560       -3.8285738810      -17.5080042000
 N      -19.9990000000       -2.9302177605      -19.9990042000
Al      -16.8870015560       -1.1335028245      -15.6053784000
Al      -18.4430000000       -0.2351467040      -18.0963784000
 N      -16.8870015560       -1.1335028245      -17.5080042000
 N      -18.4430000000       -0.2351467040      -19.9990042000
Al      -18.4430015560       -3.8285738810      -10.6233784000
Al      -19.9990000000       -2.9302177605      -13.1143784000
 N      -18.4430015560       -3.8285738810      -12.5260042000
 N      -19.9990000000       -2.9302177605      -15.0170042000
Al      -16.8870015560       -1.1335028245      -10.6233784000
Al      -18.4430000000       -0.2351467040      -13.1143784000
 N      -16.8870015560       -1.1335028245      -12.5260042000
 N      -18.4430000000       -0.2351467040      -15.0170042000
Al      -18.4430015560       -3.8285738810       -5.6413784000
Al      -19.9990000000       -2.9302177605       -8.1323784000
 N      -18.4430015560       -3.8285738810       -7.5440042000
 N      -19.9990000000       -2.9302177605      -10.0350042000
Al      -16.8870015560       -1.1335028245       -5.6413784000
Al      -18.4430000000       -0.2351467040       -8.1323784000
 N      -16.8870015560       -1.1335028245       -7.5440042000
 N      -18.4430000000       -0.2351467040      -10.0350042000
Al      -18.4430015560       -3.8285738810       -0.6593784000
Al      -19.9990000000       -2.9302177605       -3.1503784000
 N      -18.4430015560       -3.8285738810       -2.5620042000
 N      -19.9990000000       -2.9302177605       -5.0530042000
Al      -16.8870015560       -1.1335028245       -0.6593784000
Al      -18.4430000000       -0.2351467040       -3.1503784000
 N      -16.8870015560       -1.1335028245       -2.5620042000
 N      -18.4430000000       -0.2351467040       -5.0530042000
Al      -18.4430015560       -3.8285738810        4.3226216000
Al      -19.9990000000       -2.9302177605        1.8316216000
 N      -18.4430015560       -3.8285738810        2.4199958000
 N      -19.9990000000       -2.9302177605       -0.0710042000
Al      -16.8870015560       -1.1335028245        4.3226216000
Al      -18.4430000000       -0.2351467040        1.8316216000
 N      -16.8870015560       -1.1335028245        2.4199958000
 N      -18.4430000000       -0.2351467040       -0.0710042000
Al      -18.4430015560       -3.8285738810        9.3046216000
Al      -19.9990000000       -2.9302177605        6.8136216000
 N      -18.4430015560       -3.8285738810        7.4019958000
 N      -19.9990000000       -2.9302177605        4.9109958000
Al      -16.8870015560       -1.1335028245        9.3046216000
Al      -18.4430000000       -0.2351467040        6.8136216000
 N      -16.8870015560       -1.1335028245        7.4019958000
 N      -18.4430000000       -0.2351467040        4.9109958000
Al      -18.4430015560       -3.8285738810       14.2866216000
Al      -19.9990000000       -2.9302177605       11.7956216000
 N      -18.4430015560       -3.8285738810       12.3839958000
 N      -19.9990000000       -2.9302177605        9.8929958000
Al      -16.8870015560       -1.1335028245       14.2866216000
Al      -18.4430000000       -0.2351467040       11.7956216000
 N      -16.8870015560       -1.1335028245       12.3839958000
 N      -18.4430000000       -0.2351467040        9.8929958000
Al      -18.4430015560       -3.8285738810       19.2686216000
Al      -19.9990000000       -2.9302177605       16.7776216000
 N      -18.4430015560       -3.8285738810       17.3659958000
 N      -19.9990000000       -2.9302177605       14.8749958000
Al      -16.8870015560       -1.1335028245       19.2686216000
Al      -18.4430000000       -0.2351467040       16.7776216000
 N      -16.8870015560       -1.1335028245       17.3659958000
 N      -18.4430000000       -0.2351467040       14.8749958000
 N      -19.9990000000       -2.9302177605       19.8569958000
 N      -18.4430000000       -0.2351467040       19.8569958000
Al      -18.4430015560        1.5615682321      -15.6053784000
Al      -19.9990000000        2.4599243526      -18.0963784000
 N      -18.4430015560        1.5615682321      -17.5080042000
 N      -19.9990000000        2.4599243526      -19.9990042000
Al      -16.8870015560        4.2566392887      -15.6053784000
Al      -18.4430000000        5.1549954092      -18.0963784000
 N      -16.8870015560        4.2566392887      -17.5080042000
 N      -18.4430000000        5.1549954092      -19.9990042000
Al      -18.4430015560        1.5615682321      -10.6233784000
Al      -19.9990000000        2.4599243526      -13.1143784000
 N      -18.4430015560        1.5615682321      -12.5260042000
 N      -19.9990000000        2.4599243526      -15.0170042000
Al      -16.8870015560        4.2566392887      -10.6233784000
Al      -18.4430000000        5.1549954092      -13.1143784000
 N      -16.8870015560        4.2566392887      -12.5260042000
 N      -18.4430000000        5.1549954092      -15.0170042000
Al      -18.4430015560        1.5615682321       -5.6413784000
Al      -19.9990000000        2.4599243526       -8.1323784000
 N      -18.4430015560        1.5615682321       -7.5440042000
 N      -19.9990000000        2.4599243526      -10.0350042000
Al      -16.8870015560        4.2566392887       -5.6413784000
Al      -18.4430000000        5.1549954092       -8.1323784000
 N      -16.8870015560        4.2566392887       -7.5440042000
 N      -18.4430000000        5.1549954092      -10.0350042000
Al      -18.4430015560        1.5615682321       -0.6593784000
Al      -19.9990000000        2.4599243526       -3.1503784000
 N      -18.4430015560        1.5615682321       -2.5620042000
 N      -19.9990000000        2.4599243526       -5.0530042000
Al      -16.8870015560        4.2566392887       -0.6593784000
Al      -18.4430000000        5.1549954092       -3.1503784000
 N      -16.8870015560        4.2566392887       -2.5620042000
 N      -18.4430000000        5.1549954092       -5.0530042000
Al      -18.4430015560        1.5615682321        4.3226216000
Al      -19.9990000000        2.4599243526        1.8316216000
 N      -18.4430015560        1.5615682321        2.4199958000
 N      -19.9990000000        2.4599243526       -0.0710042000
Al      -16.8870015560        4.2566392887        4.3226216000
Al      -18.4430000000        5.1549954092        1.8316216000
 N      -16.8870015560        4.2566392887        2.4199958000
 N      -18.4430000000        5.1549954092       -0.0710042000
Al      -18.4430015560        1.5615682321        9.3046216000
Al      -19.9990000000        2.4599243526        6.8136216000
 N      -18.4430015560        1.5615682321        7.4019958000
 N      -19.9990000000        2.4599243526        4.9109958000
Al      -16.8870015560        4.2566392887        9.3046216000
Al      -18.4430000000        5.1549954092        6.8136216000
 N      -16.8870015560        4.2566392887        7.4019958000
 N      -18.4430000000        5.1549954092        4.9109958000
Al      -18.4430015560        1.5615682321       14.2866216000
Al      -19.9990000000        2.4599243526       11.7956216000
 N      -18.4430015560        1.5615682321       12.3839958000
 N      -19.9990000000        2.4599243526        9.8929958000
Al      -16.8870015560        4.2566392887       14.2866216000
Al      -18.4430000000        5.1549954092       11.7956216000
 N      -16.8870015560        4.2566392887       12.3839958000
 N      -18.4430000000        5.1549954092        9.8929958000
Al      -18.4430015560        1.5615682321       19.2686216000
Al      -19.9990000000        2.4599243526       16.7776216000
 N      -18.4430015560        1.5615682321       17.3659958000
 N      -19.9990000000        2.4599243526       14.8749958000
Al      -16.8870015560        4.2566392887       19.2686216000
Al      -18.4430000000        5.1549954092       16.7776216000
 N      -16.8870015560        4.2566392887       17.3659958000
 N      -18.4430000000        5.1549954092       14.8749958000
 N      -19.9990000000        2.4599243526       19.8569958000
 N      -18.4430000000        5.1549954092       19.8569958000
Al      -18.4430015560        6.9517103453      -15.6053784000
Al      -19.9990000000        7.8500664658      -18.0963784000
 N      -18.4430015560        6.9517103453      -17.5080042000
 N      -19.9990000000        7.8500664658      -19.9990042000
Al      -16.8870015560        9.6467814018      -15.6053784000
Al      -18.4430000000       10.5451375223      -18.0963784000
 N      -16.8870015560        9.6467814018      -17.5080042000
 N      -18.4430000000       10.5451375223      -19.9990042000
Al      -18.4430015560        6.9517103453      -10.6233784000
Al      -19.9990000000        7.8500664658      -13.1143784000
 N      -18.4430015560        6.9517103453      -12.5260042000
 N      -19.9990000000        7.8500664658      -15.0170042000
Al      -16.8870015560        9.6467814018      -10.6233784000
Al      -18.4430000000       10.5451375223      -13.1143784000
 N      -16.8870015560        9.6467814018      -12.5260042000
 N      -18.4430000000       10.5451375223      -15.0170042000
Al      -18.4430015560        6.9517103453       -5.6413784000
Al      -19.9990000000        7.8500664658       -8.1323784000
 N      -18.4430015560        6.9517103453       -7.5440042000
 N      -19.9990000000        7.8500664658      -10.0350042000
Al      -16.8870015560        9.6467814018       -5.6413784000
Al      -18.4430000000       10.5451375223       -8.1323784000
 N      -16.8870015560        9.6467814018       -7.5440042000
 N      -18.4430000000       10.5451375223      -10.0350042000
Al      -18.4430015560        6.9517103453       -0.6593784000
Al      -19.9990000000        7.8500664658       -3.1503784000
 N      -18.4430015560        6.9517103453       -2.5620042000
 N      -19.9990000000        7.8500664658       -5.0530042000
Al      -16.8870015560        9.6467814018       -0.6593784000
Al      -18.4430000000       10.5451375223       -3.1503784000
 N      -16.8870015560        9.6467814018       -2.5620042000
 N      -18.4430000000       10.5451375223       -5.0530042000
Al      -18.4430015560        6.9517103453        4.3226216000
Al      -19.9990000000        7.8500664658        1.8316216000
 N      -18.4430015560        6.9517103453        2.4199958000
 N      -19.9990000000        7.8500664658       -0.0710042000
Al      -16.8870015560        9.6467814018        4.3226216000
Al      -18.4430000000       10.5451375223        1.8316216000
 N      -16.8870015560        9.6467814018        2.4199958000
 N      -18.4430000000       10.5451375223       -0.0710042000
Al      -18.4430015560        6.9517103453        9.3046216000
Al      -19.9990000000        7.8500664658        6.8136216000
 N      -18.4430015560        6.9517103453        7.4019958000
 N      -19.9990000000        7.8500664658        4.9109958000
Al      -16.8870015560        9.6467814018        9.3046216000
Al      -18.4430000000       10.5451375223        6.8136216000
 N      -16.8870015560        9.6467814018        7.4019958000
 N      -18.4430000000       10.5451375223        4.9109958000
Al      -18.4430015560        6.9517103453       14.2866216000
Al      -19.9990000000        7.8500664658       11.7956216000
 N      -18.4430015560        6.9517103453       12.3839958000
 N      -19.9990000000        7.8500664658        9.8929958000
Al      -16.8870015560        9.6467814018       14.2866216000
Al      -18.4430000000       10.5451375223       11.7956216000
 N      -16.8870015560        9.6467814018       12.3839958000
 N      -18.4430000000       10.5451375223        9.8929958000
Al      -18.4430015560        6.9517103453       19.2686216000
Al      -19.9990000000        7.8500664658       16.7776216000
 N      -18.4430015560        6.9517103453       17.3659958000
 N      -19.9990000000        7.8500664658       14.8749958000
Al      -16.8870015560        9.6467814018       19.2686216000
Al      -18.4430000000       10.5451375223       16.7776216000
 N      -16.8870015560        9.6467814018       17.3659958000
 N      -18.4430000000       10.5451375223       14.8749958000
 N      -19.9990000000        7.8500664658       19.8569958000
 N      -18.4430000000       10.5451375223       19.8569958000
Al      -18.4430015560       12.3418524584      -15.6053784000
Al      -19.9990000000       13.2402085789      -18.0963784000
 N      -18.4430015560       12.3418524584      -17.5080042000
 N      -19.9990000000       13.2402085789      -19.9990042000
Al      -16.8870015560       15.0369235150      -15.6053784000
Al      -18.4430000000       15.9352796355      -18.0963784000
 N      -16.8870015560       15.0369235150      -17.5080042000
 N      -18.4430000000       15.9352796355      -19.9990042000
Al      -18.4430015560       12.3418524584      -10.6233784000
Al      -19.9990000000       13.2402085789      -13.1143784000
 N      -18.4430015560       12.3418524584      -12.5260042000
 N      -19.9990000000       13.2402085789      -15.0170042000
Al      -16.8870015560       15.0369235150      -10.6233784000
Al      -18.4430000000       15.9352796355      -13.1143784000
 N      -16.8870015560       15.0369235150      -12.5260042000
 N      -18.4430000000       15.9352796355      -15.0170042000
Al      -18.4430015560       12.3418524584       -5.6413784000
Al      -19.9990000000       13.2402085789       -8.1323784000
 N      -18.4430015560       12.3418524584       -7.5440042000
 N      -19.9990000000       13.2402085789      -10.0350042000
Al      -16.8870015560       15.0369235150       -5.6413784000
Al      -18.4430000000       15.9352796355       -8.1323784000
 N      -16.8870015560       15.0369235150       -7.5440042000
 N      -18.4430000000       15.9352796355      -10.0350042000
Al      -18.4430015560       12.3418524584       -0.6593784000
Al      -19.9990000000       13.2402085789       -3.1503784000
 N      -18.4430015560       12.3418524584       -2.5620042000
 N      -19.9990000000       13.2402085789       -5.0530042000
Al      -16.8870015560       15.0369235150       -0.6593784000
Al      -18.4430000000       15.9352796355       -3.1503784000
 N      -16.8870015560       15.0369235150       -2.5620042000
 N      -18.4430000000       15.9352796355       -5.0530042000
Al      -18.4430015560       12.3418524584        4.3226216000
Al      -19.9990000000       13.2402085789        1.8316216000
 N      -18.4430015560       12.3418524584        2.4199958000
 N      -19.9990000000       13.2402085789       -0.0710042000
Al      -16.8870015560       15.0369235150        4.3226216000
Al      -18.4430000000       15.9352796355        1.8316216000
 N      -16.8870015560       15.0369235150        2.4199958000
 N      -18.4430000000       15.9352796355       -0.0710042000
Al      -18.4430015560       12.3418524584        9.3046216000
Al      -19.9990000000       13.2402085789        6.8136216000
 N      -18.4430015560       12.3418524584        7.4019958000
 N      -19.9990000000       13.2402085789        4.9109958000
Al      -16.8870015560       15.0369235150        9.3046216000
Al      -18.4430000000       15.9352796355        6.8136216000
 N      -16.8870015560       15.0369235150        7.4019958000
 N      -18.4430000000       15.9352796355        4.9109958000
Al      -18.4430015560       12.3418524584       14.2866216000
Al      -19.9990000000       13.2402085789       11.7956216000
 N      -18.4430015560       12.3418524584       12.3839958000
 N      -19.9990000000       13.2402085789        9.8929958000
Al      -16.8870015560       15.0369235150       14.2866216000
Al      -18.4430000000       15.9352796355       11.7956216000
 N      -16.8870015560       15.0369235150       12.3839958000
 N      -18.4430000000       15.9352796355        9.8929958000
Al      -18.4430015560       12.3418524584       19.2686216000
Al      -19.9990000000       13.2402085789       16.7776216000
 N      -18.4430015560       12.3418524584       17.3659958000
 N      -19.9990000000       13.2402085789       14.8749958000
Al      -16.8870015560       15.0369235150       19.2686216000
Al      -18.4430000000       15.9352796355       16.7776216000
 N      -16.8870015560       15.0369235150       17.3659958000
 N      -18.4430000000       15.9352796355       14.8749958000
 N      -19.9990000000       13.2402085789       19.8569958000
 N      -18.4430000000       15.9352796355       19.8569958000
Al      -18.4430015560       17.7319945716      -15.6053784000
Al      -19.9990000000       18.6303506921      -18.0963784000
 N      -18.4430015560       17.7319945716      -17.5080042000
 N      -19.9990000000       18.6303506921      -19.9990042000
Al      -18.4430015560       17.7319945716      -10.6233784000
Al      -19.9990000000       18.6303506921      -13.1143784000
 N      -18.4430015560       17.7319945716      -12.5260042000
 N      -19.9990000000       18.6303506921      -15.0170042000
Al      -18.4430015560       17.7319945716       -5.6413784000
Al      -19.9990000000       18.6303506921       -8.1323784000
 N      -18.4430015560       17.7319945716       -7.5440042000
 N      -19.9990000000       18.6303506921      -10.0350042000
Al      -18.4430015560       17.7319945716       -0.6593784000
Al      -19.9990000000       18.6303506921       -3.1503784000
 N      -18.4430015560       17.7319945716       -2.5620042000
 N      -19.9990000000       18.6303506921       -5.0530042000
Al      -18.4430015560       17.7319945716        4.3226216000
Al      -19.9990000000       18.6303506921        1.8316216000
 N      -18.4430015560       17.7319945716        2.4199958000
 N      -19.9990000000       18.6303506921       -0.0710042000
Al      -18.4430015560       17.7319945716        9.3046216000
Al      -19.9990000000       18.6303506921        6.8136216000
 N      -18.4430015560       17.7319945716        7.4019958000
 N      -19.9990000000       18.6303506921        4.9109958000
Al      -18.4430015560       17.7319945716       14.2866216000
Al      -19.9990000000       18.6303506921       11.7956216000
 N      -18.4430015560       17.7319945716       12.3839958000
 N      -19.9990000000       18.6303506921        9.8929958000
Al      -18.4430015560       17.7319945716       19.2686216000
Al      -19.9990000000       18.6303506921       16.7776216000
 N      -18.4430015560       17.7319945716       17.3659958000
 N      -19.9990000000       18.6303506921       14.8749958000
 N      -19.9990000000       18.6303506921       19.8569958000
Al      -15.3310015560      -19.9990002205      -15.6053784000
Al      -16.8870000000      -19.1006441000      -18.0963784000
 N      -15.3310015560      -19.9990002205      -17.5080042000
 N      -16.8870000000      -19.1006441000      -19.9990042000
Al      -13.7750015560      -17.3039291639      -15.6053784000
Al      -15.3310000000      -16.4055730434      -18.0963784000
 N      -13.7750015560      -17.3039291639      -17.5080042000
 N      -15.3310000000      -16.4055730434      -19.9990042000
Al      -15.3310015560      -19.9990002205      -10.6233784000
Al      -16.8870000000      -19.1006441000      -13.1143784000
 N      -15.3310015560      -19.9990002205      -12.5260042000
 N      -16.8870000000      -19.1006441000      -15.0170042000
Al      -13.7750015560      -17.3039291639      -10.6233784000
Al      -15.3310000000      -16.4055730434      -13.1143784000
 N      -13.7750015560      -17.3039291639      -12.5260042000
 N      -15.3310000000      -16.4055730434      -15.0170042000
Al      -15.3310015560      -19.9990002205       -5.6413784000
Al      -16.8870000000      -19.1006441000       -8.1323784000
 N      -15.3310015560      -19.9990002205       -7.5440042000
 N      -16.8870000000      -19.1006441000      -10.0350042000
Al      -13.7750015560      -17.3039291639       -5.6413784000
Al      -15.3310000000      -16.4055730434       -8.1323784000
 N      -13.7750015560      -17.3039291639       -7.5440042000
 N      -15.3310000000      -16.4055730434      -10.0350042000
Al      -15.3310015560      -19.9990002205       -0.6593784000
Al      -16.8870000000      -19.1006441000       -3.1503784000
 N      -15.3310015560      -19.9990002205       -2.5620042000
 N      -16.8870000000      -19.1006441000       -5.0530042000
Al      -13.7750015560      -17.3039291639       -0.6593784000
Al      -15.3310000000      -16.4055730434       -3.1503784000
 N      -13.7750015560      -17.3039291639       -2.5620042000
 N      -15.3310000000      -16.4055730434       -5.0530042000
Al      -15.3310015560      -19.9990002205        4.3226216000
Al      -16.8870000000      -19.1006441000        1.8316216000
 N      -15.3310015560      -19.9990002205        2.4199958000
 N      -16.8870000000      -19.1006441000       -0.0710042000
Al      -13.7750015560      -17.3039291639        4.3226216000
Al      -15.3310000000      -16.4055730434        1.8316216000
 N      -13.7750015560      -17.3039291639        2.4199958000
 N      -15.3310000000      -16.4055730434       -0.0710042000
Al      -15.3310015560      -19.9990002205        9.3046216000
Al      -16.8870000000      -19.1006441000        6.8136216000
 N      -15.3310015560      -19.9990002205        7.4019958000
 N      -16.8870000000      -19.1006441000        4.9109958000
Al      -13.7750015560      -17.3039291639        9.3046216000
Al      -15.3310000000      -16.4055730434        6.8136216000
 N      -13.7750015560      -17.3039291639        7.4019958000
 N      -15.3310000000      -16.4055730434        4.9109958000
Al      -15.3310015560      -19.9990002205       14.2866216000
Al      -16.8870000000      -19.1006441000       11.7956216000
 N      -15.3310015560      -19.9990002205       12.3839958000
 N      -16.8870000000      -19.1006441000        9.8929958000
Al      -13.7750015560      -17.3039291639       14.2866216000
Al      -15.3310000000      -16.4055730434       11.7956216000
 N      -13.7750015560      -17.3039291639       12.3839958000
 N      -15.3310000000      -16.4055730434        9.8929958000
Al      -15.3310015560      -19.9990002205       19.2686216000
Al      -16.8870000000      -19.1006441000       16.7776216000
 N      -15.3310015560      -19.9990002205       17.3659958000
 N      -16.8870000000      -19.1006441000       14.8749958000
Al      -13.7750015560      -17.3039291639       19.2686216000
Al      -15.3310000000      -16.4055730434       16.7776216000
 N      -13.7750015560      -17.3039291639       17.3659958000
 N      -15.3310000000      -16.4055730434       14.8749958000
 N      -16.8870000000      -19.1006441000       19.8569958000
 N      -15.3310000000      -16.4055730434       19.8569958000
Al      -15.3310015560      -14.6088581073      -15.6053784000
Al      -16.8870000000      -13.7105019868      -18.0963784000
 N      -15.3310015560      -14.6088581073      -17.5080042000
 N      -16.8870000000      -13.7105019868      -19.9990042000
Al      -13.7750015560      -11.9137870508      -15.6053784000
Al      -15.3310000000      -11.0154309303      -18.0963784000
 N      -13.7750015560      -11.9137870508      -17.5080042000
 N      -15.3310000000      -11.0154309303      -19.9990042000
Al      -15.3310015560      -14.6088581073      -10.6233784000
Al      -16.8870000000      -13.7105019868      -13.1143784000
 N      -15.3310015560      -14.6088581073      -12.5260042000
 N      -16.8870000000      -13.7105019868      -15.0170042000
Al      -13.7750015560      -11.9137870508      -10.6233784000
Al      -15.3310000000      -11.0154309303      -13.1143784000
 N      -13.7750015560      -11.9137870508      -12.5260042000
 N      -15.3310000000      -11.0154309303      -15.0170042000
Al      -15.3310015560      -14.6088581073       -5.6413784000
Al      -16.8870000000      -13.7105019868       -8.1323784000
 N      -15.3310015560      -14.6088581073       -7.5440042000
 N      -16.8870000000      -13.7105019868      -10.0350042000
Al      -13.7750015560      -11.9137870508       -5.6413784000
Al      -15.3310000000      -11.0154309303       -8.1323784000
 N      -13.7750015560      -11.9137870508       -7.5440042000
 N      -15.3310000000      -11.0154309303      -10.0350042000
Al      -15.3310015560      -14.6088581073       -0.6593784000
Al      -16.8870000000      -13.7105019868       -3.1503784000
 N      -15.3310015560      -14.6088581073       -2.5620042000
 N      -16.8870000000      -13.7105019868       -5.0530042000
Al      -13.7750015560      -11.9137870508       -0.6593784000
Al      -15.3310000000      -11.0154309303       -3.1503784000
 N      -13.7750015560      -11.9137870508       -2.5620042000
 N      -15.3310000000      -11.0154309303       -5.0530042000
Al      -15.3310015560      -14.6088581073        4.3226216000
Al      -16.8870000000      -13.7105019868        1.8316216000
 N      -15.3310015560      -14.6088581073        2.4199958000
 N      -16.8870000000      -13.7105019868       -0.0710042000
Al      -13.7750015560      -11.9137870508        4.3226216000
Al      -15.3310000000      -11.0154309303        1.8316216000
 N      -13.7750015560      -11.9137870508        2.4199958000
 N      -15.3310000000      -11.0154309303       -0.0710042000
Al      -15.3310015560      -14.6088581073        9.3046216000
Al      -16.8870000000      -13.7105019868        6.8136216000
 N      -15.3310015560      -14.6088581073        7.4019958000
 N      -16.8870000000      -13.7105019868        4.9109958000
Al      -13.7750015560      -11.9137870508        9.3046216000
Al      -15.3310000000      -11.0154309303        6.8136216000
 N      -13.7750015560      -11.9137870508        7.4019958000
 N      -15.3310000000      -11.0154309303        4.9109958000
Al      -15.3310015560      -14.6088581073       14.2866216000
Al      -16.8870000000      -13.7105019868       11.7956216000
 N      -15.3310015560      -14.6088581073       12.3839958000
 N      -16.8870000000      -13.7105019868        9.8929958000
Al      -13.7750015560      -11.9137870508       14.2866216000
Al      -15.3310000000      -11.0154309303       11.7956216000
 N      -13.7750015560      -11.9137870508       12.3839958000
 N      -15.3310000000      -11.0154309303        9.8929958000
Al      -15.3310015560      -14.6088581073       19.2686216000
Al      -16.8870000000      -13.7105019868       16.7776216000
 N      -15.3310015560      -14.6088581073       17.3659958000
 N      -16.8870000000      -13.7105019868       14.8749958000
Al      -13.7750015560      -11.9137870508       19.2686216000
Al      -15.3310000000      -11.0154309303       16.7776216000
 N      -13.7750015560      -11.9137870508       17.3659958000
 N      -15.3310000000      -11.0154309303       14.8749958000
 N      -16.8870000000      -13.7105019868       19.8569958000
 N      -15.3310000000      -11.0154309303       19.8569958000
Al      -15.3310015560       -9.2187159942      -15.6053784000
Al      -16.8870000000       -8.3203598737      -18.0963784000
 N      -15.3310015560       -9.2187159942      -17.5080042000
 N      -16.8870000000       -8.3203598737      -19.9990042000
Al      -13.7750015560       -6.5236449376      -15.6053784000
Al      -15.3310000000       -5.6252888171      -18.0963784000
 N      -13.7750015560       -6.5236449376      -17.5080042000
 N      -15.3310000000       -5.6252888171      -19.9990042000
Al      -15.3310015560       -9.2187159942      -10.6233784000
Al      -16.8870000000       -8.3203598737      -13.1143784000
 N      -15.3310015560       -9.2187159942      -12.5260042000
 N      -16.8870000000       -8.3203598737      -15.0170042000
Al      -13.7750015560       -6.5236449376      -10.6233784000
Al      -15.3310000000       -5.6252888171      -13.1143784000
 N      -13.7750015560       -6.5236449376      -12.5260042000
 N      -15.3310000000       -5.6252888171      -15.0170042000
Al      -15.3310015560       -9.2187159942       -5.6413784000
Al      -16.8870000000       -8.3203598737       -8.1323784000
 N      -15.3310015560       -9.2187159942       -7.5440042000
 N      -16.8870000000       -8.3203598737      -10.0350042000
Al      -13.7750015560       -6.5236449376       -5.6413784000
Al      -15.3310000000       -5.6252888171       -8.1323784000
 N      -13.7750015560       -6.5236449376       -7.5440042000
 N      -15.3310000000       -5.6252888171      -10.0350042000
Al      -15.3310015560       -9.2187159942       -0.6593784000
Al      -16.8870000000       -8.3203598737       -3.1503784000
 N      -15.3310015560       -9.2187159942       -2.5620042000
 N      -16.8870000000       -8.3203598737       -5.0530042000
Al      -13.7750015560       -6.5236449376       -0.6593784000
Al      -15.3310000000       -5.6252888171       -3.1503784000
 N      -13.7750015560       -6.5236449376       -2.5620042000
 N      -15.3310000000       -5.6252888171       -5.0530042000
Al      -15.3310015560       -9.2187159942        4.3226216000
Al      -16.8870000000       -8.3203598737        1.8316216000
 N      -15.3310015560       -9.2187159942        2.4199958000
 N      -16.8870000000       -8.3203598737       -0.0710042000
Al      -13.7750015560       -6.5236449376        4.3226216000
Al      -15.3310000000       -5.6252888171        1.8316216000
 N      -13.7750015560       -6.5236449376        2.4199958000
 N      -15.3310000000       -5.6252888171       -0.0710042000
Al      -15.3310015560       -9.2187159942        9.3046216000
Al      -16.8870000000       -8.3203598737        6.8136216000
 N      -15.3310015560       -9.2187159942        7.4019958000
 N      -16.8870000000       -8.3203598737        4.9109958000
Al      -13.7750015560       -6.5236449376        9.3046216000
Al      -15.3310000000       -5.6252888171        6.8136216000
 N      -13.7750015560       -6.5236449376        7.4019958000
 N      -15.3310000000       -5.6252888171        4.9109958000
Al      -15.3310015560       -9.2187159942       14.2866216000
Al      -16.8870000000       -8.3203598737       11.7956216000
 N      -15.3310015560       -9.2187159942       12.3839958000
 N      -16.8870000000       -8.3203598737        9.8929958000
Al      -13.7750015560       -6.5236449376       14.2866216000
Al      -15.3310000000       -5.6252888171       11.7956216000
 N      -13.7750015560       -6.5236449376       12.3839958000
 N      -15.3310000000       -5.6252888171        9.8929958000
Al      -15.3310015560       -9.2187159942       19.2686216000
Al      -16.8870000000       -8.3203598737       16.7776216000
 N      -15.3310015560       -9.2187159942       17.3659958000
 N      -16.8870000000       -8.3203598737       14.8749958000
Al      -13.7750015560       -6.5236449376       19.2686216000
Al      -15.3310000000       -5.6252888171       16.7776216000
 N      -13.7750015560       -6.5236449376       17.3659958000
 N      -15.3310000000       -5.6252888171       14.8749958000
 N      -16.8870000000       -8.3203598737       19.8569958000
 N      -15.3310000000       -5.6252888171       19.8569958000
Al      -15.3310015560       -3.8285738810      -15.6053784000
Al      -16.8870000000       -2.9302177605      -18.0963784000
 N      -15.3310015560       -3.8285738810      -17.5080042000
 N      -16.8870000000       -2.9302177605      -19.9990042000
Al      -13.7750015560       -1.1335028245      -15.6053784000
Al      -15.3310000000       -0.2351467040      -18.0963784000
 N      -13.7750015560       -1.1335028245      -17.5080042000
 N      -15.3310000000       -0.2351467040      -19.9990042000
Al      -15.3310015560       -3.8285738810      -10.6233784000
Al      -16.8870000000       -2.9302177605      -13.1143784000
 N      -15.3310015560       -3.8285738810      -12.5260042000
 N      -16.8870000000       -2.9302177605      -15.0170042000
Al      -13.7750015560       -1.1335028245      -10.6233784000
Al      -15.3310000000       -0.2351467040      -13.1143784000
 N      -13.7750015560       -1.1335028245      -12.5260042000
 N      -15.3310000000       -0.2351467040      -15.0170042000
Al      -15.3310015560       -3.8285738810       -5.6413784000
Al      -16.8870000000       -2.9302177605       -8.1323784000
 N      -15.3310015560       -3.8285738810       -7.5440042000
 N      -16.8870000000       -2.9302177605      -10.0350042000
Al      -13.7750015560       -1.1335028245       -5.6413784000
Al      -15.3310000000       -0.2351467040       -8.1323784000
 N      -13.7750015560       -1.1335028245       -7.5440042000
 N      -15.3310000000       -0.2351467040      -10.0350042000
Al      -15.3310015560       -3.8285738810       -0.6593784000
Al      -16.8870000000       -2.9302177605       -3.1503784000
 N      -15.3310015560       -3.8285738810       -2.5620042000
 N      -16.8870000000       -2.9302177605       -5.0530042000
Al      -13.7750015560       -1.1335028245       -0.6593784000
Al      -15.3310000000       -0.2351467040       -3.1503784000
 N      -13.7750015560       -1.1335028245       -2.5620042000
 N      -15.3310000000       -0.2351467040       -5.0530042000
Al      -15.3310015560       -3.8285738810        4.3226216000
Al      -16.8870000000       -2.9302177605        1.8316216000
 N      -15.3310015560       -3.8285738810        2.4199958000
 N      -16.8870000000       -2.9302177605       -0.0710042000
Al      -13.7750015560       -1.1335028245        4.3226216000
Al      -15.3310000000       -0.2351467040        1.8316216000
 N      -13.7750015560       -1.1335028245        2.4199958000
 N      -15.3310000000       -0.2351467040       -0.0710042000
Al      -15.3310015560       -3.8285738810        9.3046216000
Al      -16.8870000000       -2.9302177605        6.8136216000
 N      -15.3310015560       -3.8285738810        7.4019958000
 N      -16.8870000000       -2.9302177605        4.9109958000
Al      -13.7750015560       -1.1335028245        9.3046216000
Al      -15.3310000000       -0.2351467040        6.8136216000
 N      -13.7750015560       -1.1335028245        7.4019958000
 N      -15.3310000000       -0.2351467040        4.9109958000
Al      -15.3310015560       -3.8285738810       14.2866216000
Al      -16.8870000000       -2.9302177605       11.7956216000
 N      -15.3310015560       -3.8285738810       12.3839958000
 N      -16.8870000000       -2.9302177605        9.8929958000
Al      -13.7750015560       -1.1335028245       14.2866216000
Al      -15.3310000000       -0.2351467040       11.7956216000
 N      -13.7750015560       -1.1335028245       12.3839958000
 N      -15.3310000000       -0.2351467040        9.8929958000
Al      -15.3310015560       -3.8285738810       19.2686216000
Al      -16.8870000000       -2.9302177605       16.7776216000
 N      -15.3310015560       -3.8285738810       17.3659958000
 N      -16.8870000000       -2.9302177605       14.8749958000
Al      -13.7750015560       -1.1335028245       19.2686216000
Al      -15.3310000000       -0.2351467040       16.7776216000
 N      -13.7750015560       -1.1335028245       17.3659958000
 N      -15.3310000000       -0.2351467040       14.8749958000
 N      -16.8870000000       -2.9302177605       19.8569958000
 N      -15.3310000000       -0.2351467040       19.8569958000
Al      -15.3310015560        1.5615682321      -15.6053784000
Al      -16.8870000000        2.4599243526      -18.0963784000
 N      -15.3310015560        1.5615682321      -17.5080042000
 N      -16.8870000000        2.4599243526      -19.9990042000
Al      -13.7750015560        4.2566392887      -15.6053784000
Al      -15.3310000000        5.1549954092      -18.0963784000
 N      -13.7750015560        4.2566392887      -17.5080042000
 N      -15.3310000000        5.1549954092      -19.9990042000
Al      -15.3310015560        1.5615682321      -10.6233784000
Al      -16.8870000000        2.4599243526      -13.1143784000
 N      -15.3310015560        1.5615682321      -12.5260042000
 N      -16.8870000000        2.4599243526      -15.0170042000
Al      -13.7750015560        4.2566392887      -10.6233784000
Al      -15.3310000000        5.1549954092      -13.1143784000
 N      -13.7750015560        4.2566392887      -12.5260042000
 N      -15.3310000000        5.1549954092      -15.0170042000
Al      -15.3310015560        1.5615682321       -5.6413784000
Al      -16.8870000000        2.4599243526       -8.1323784000
 N      -15.3310015560        1.5615682321       -7.5440042000
 N      -16.8870000000        2.4599243526      -10.0350042000
Al      -13.7750015560        4.2566392887       -5.6413784000
Al      -15.3310000000        5.1549954092       -8.1323784000
 N      -13.7750015560        4.2566392887       -7.5440042000
 N      -15.3310000000        5.1549954092      -10.0350042000
Al      -15.3310015560        1.5615682321       -0.6593784000
Al      -16.8870000000        2.4599243526       -3.1503784000
 N      -15.3310015560        1.5615682321       -2.5620042000
 N      -16.8870000000        2.4599243526       -5.0530042000
Al      -13.7750015560        4.2566392887       -0.6593784000
Al      -15.3310000000        5.1549954092       -3.1503784000
 N      -13.7750015560        4.2566392887       -2.5620042000
 N      -15.3310000000        5.1549954092       -5.0530042000
Al      -15.3310015560        1.5615682321        4.3226216000
Al      -16.8870000000        2.4599243526        1.8316216000
 N      -15.3310015560        1.5615682321        2.4199958000
 N      -16.8870000000        2.4599243526       -0.0710042000
Al      -13.7750015560        4.2566392887        4.3226216000
Al      -15.3310000000        5.1549954092        1.8316216000
 N      -13.7750015560        4.2566392887        2.4199958000
 N      -15.3310000000        5.1549954092       -0.0710042000
Al      -15.3310015560        1.5615682321        9.3046216000
Al      -16.8870000000        2.4599243526        6.8136216000
 N      -15.3310015560        1.5615682321        7.4019958000
 N      -16.8870000000        2.4599243526        4.9109958000
Al      -13.7750015560        4.2566392887        9.3046216000
Al      -15.3310000000        5.1549954092        6.8136216000
 N      -13.7750015560        4.2566392887        7.4019958000
 N      -15.3310000000        5.1549954092        4.9109958000
Al      -15.3310015560        1.5615682321       14.2866216000
Al      -16.8870000000        2.4599243526       11.7956216000
 N      -15.3310015560        1.5615682321       12.3839958000
 N      -16.8870000000        2.4599243526        9.8929958000
Al      -13.7750015560        4.2566392887       14.2866216000
Al      -15.3310000000        5.1549954092       11.7956216000
 N      -13.7750015560        4.2566392887       12.3839958000
 N      -15.3310000000        5.1549954092        9.8929958000
Al      -15.3310015560        1.5615682321       19.2686216000
Al      -16.8870000000        2.4599243526       16.7776216000
 N      -15.3310015560        1.5615682321       17.3659958000
 N      -16.8870000000        2.4599243526       14.8749958000
Al      -13.7750015560        4.2566392887       19.2686216000
Al      -15.3310000000        5.1549954092       16.7776216000
 N      -13.7750015560        4.2566392887       17.3659958000
 N      -15.3310000000        5.1549954092       14.8749958000
 N      -16.8870000000        2.4599243526       19.8569958000
 N      -15.3310000000        5.1549954092       19.8569958000
Al      -15.3310015560        6.9517103453      -15.6053784000
Al      -16.8870000000        7.8500664658      -18.0963784000
 N      -15.3310015560        6.9517103453      -17.5080042000
 N      -16.8870000000        7.8500664658      -19.9990042000
Al      -13.7750015560        9.6467814018      -15.6053784000
Al      -15.3310000000       10.5451375223      -18.0963784000
 N      -13.7750015560        9.6467814018      -17.5080042000
 N      -15.3310000000       10.5451375223      -19.9990042000
Al      -15.3310015560        6.9517103453      -10.6233784000
Al      -16.8870000000        7.8500664658      -13.1143784000
 N      -15.3310015560        6.9517103453      -12.5260042000
 N      -16.8870000000        7.8500664658      -15.0170042000
Al      -13.7750015560        9.6467814018      -10.6233784000
Al      -15.3310000000       10.5451375223      -13.1143784000
 N      -13.7750015560        9.6467814018      -12.5260042000
 N      -15.3310000000       10.5451375223      -15.0170042000
Al      -15.3310015560        6.9517103453       -5.6413784000
Al      -16.8870000000        7.8500664658       -8.1323784000
 N      -15.3310015560        6.9517103453       -7.5440042000
 N      -16.8870000000        7.8500664658      -10.0350042000
Al      -13.7750015560        9.6467814018       -5.6413784000
Al      -15.3310000000       10.5451375223       -8.1323784000
 N      -13.7750015560        9.6467814018       -7.5440042000
 N      -15.3310000000       10.5451375223      -10.0350042000
Al      -15.3310015560        6.9517103453       -0.6593784000
Al      -16.8870000000        7.8500664658       -3.1503784000
 N      -15.3310015560        6.9517103453       -2.5620042000
 N      -16.8870000000        7.8500664658       -5.0530042000
Al      -13.7750015560        9.6467814018       -0.6593784000
Al      -15.3310000000       10.5451375223       -3.1503784000
 N      -13.7750015560        9.6467814018       -2.5620042000
 N      -15.3310000000       10.5451375223       -5.0530042000
Al      -15.3310015560        6.9517103453        4.3226216000
Al      -16.8870000000        7.8500664658        1.8316216000
 N      -15.3310015560        6.9517103453        2.4199958000
 N      -16.8870000000        7.8500664658       -0.0710042000
Al      -13.7750015560        9.6467814018        4.3226216000
Al      -15.3310000000       10.5451375223        1.8316216000
 N      -13.7750015560        9.6467814018        2.4199958000
 N      -15.3310000000       10.5451375223       -0.0710042000
Al      -15.3310015560        6.9517103453        9.3046216000
Al      -16.8870000000        7.8500664658        6.8136216000
 N      -15.3310015560        6.9517103453        7.4019958000
 N      -16.8870000000        7.8500664658        4.9109958000
Al      -13.7750015560        9.6467814018        9.3046216000
Al      -15.3310000000       10.5451375223        6.8136216000
 N      -13.7750015560        9.6467814018        7.4019958000
 N      -15.3310000000       10.5451375223        4.9109958000
Al      -15.3310015560        6.9517103453       14.2866216000
Al      -16.8870000000        7.8500664658       11.7956216000
 N      -15.3310015560        6.9517103453       12.3839958000
 N      -16.8870000000        7.8500664658        9.8929958000
Al      -13.7750015560        9.6467814018       14.2866216000
Al      -15.3310000000       10.5451375223       11.7956216000
 N      -13.7750015560        9.6467814018       12.3839958000
 N      -15.3310000000       10.5451375223        9.8929958000
Al      -15.3310015560        6.9517103453       19.2686216000
Al      -16.8870000000        7.8500664658       16.7776216000
 N      -15.3310015560        6.9517103453       17.3659958000
 N      -16.8870000000        7.8500664658       14.8749958000
Al      -13.7750015560        9.6467814018       19.2686216000
Al      -15.3310000000       10.5451375223       16.7776216000
 N      -13.7750015560        9.6467814018       17.3659958000
 N      -15.3310000000       10.5451375223       14.8749958000
 N      -16.8870000000        7.8500664658       19.8569958000
 N      -15.3310000000       10.5451375223       19.8569958000
Al      -15.3310015560       12.3418524584      -15.6053784000
Al      -16.8870000000       13.2402085789      -18.0963784000
 N      -15.3310015560       12.3418524584      -17.5080042000
 N      -16.8870000000       13.2402085789      -19.9990042000
Al      -13.7750015560       15.0369235150      -15.6053784000
Al      -15.3310000000       15.9352796355      -18.0963784000
 N      -13.7750015560       15.0369235150      -17.5080042000
 N      -15.3310000000       15.9352796355      -19.9990042000
Al      -15.3310015560       12.3418524584      -10.6233784000
Al      -16.8870000000       13.2402085789      -13.1143784000
 N      -15.3310015560       12.3418524584      -12.5260042000
 N      -16.8870000000       13.2402085789      -15.0170042000
Al      -13.7750015560       15.0369235150      -10.6233784000
Al      -15.3310000000       15.9352796355      -13.1143784000
 N      -13.7750015560       15.0369235150      -12.5260042000
 N      -15.3310000000       15.9352796355      -15.0170042000
Al      -15.3310015560       12.3418524584       -5.6413784000
Al      -16.8870000000       13.2402085789       -8.1323784000
 N      -15.3310015560       12.3418524584       -7.5440042000
 N      -16.8870000000       13.2402085789      -10.0350042000
Al      -13.7750015560       15.0369235150       -5.6413784000
Al      -15.3310000000       15.9352796355       -8.1323784000
 N      -13.7750015560       15.0369235150       -7.5440042000
 N      -15.3310000000       15.9352796355      -10.0350042000
Al      -15.3310015560       12.3418524584       -0.6593784000
Al      -16.8870000000       13.2402085789       -3.1503784000
 N      -15.3310015560       12.3418524584       -2.5620042000
 N      -16.8870000000       13.2402085789       -5.0530042000
Al      -13.7750015560       15.0369235150       -0.6593784000
Al      -15.3310000000       15.9352796355       -3.1503784000
 N      -13.7750015560       15.0369235150       -2.5620042000
 N      -15.3310000000       15.9352796355       -5.0530042000
Al      -15.3310015560       12.3418524584        4.3226216000
Al      -16.8870000000       13.2402085789        1.8316216000
 N      -15.3310015560       12.3418524584        2.4199958000
 N      -16.8870000000       13.2402085789       -0.0710042000
Al      -13.7750015560       15.0369235150        4.3226216000
Al      -15.3310000000       15.9352796355        1.8316216000
 N      -13.7750015560       15.0369235150        2.4199958000
 N      -15.3310000000       15.9352796355       -0.0710042000
Al      -15.3310015560       12.3418524584        9.3046216000
Al      -16.8870000000       13.2402085789        6.8136216000
 N      -15.3310015560       12.3418524584        7.4019958000
 N      -16.8870000000       13.2402085789        4.9109958000
Al      -13.7750015560       15.0369235150        9.3046216000
Al      -15.3310000000       15.9352796355        6.8136216000
 N      -13.7750015560       15.0369235150        7.4019958000
 N      -15.3310000000       15.9352796355        4.9109958000
Al      -15.3310015560       12.3418524584       14.2866216000
Al      -16.8870000000       13.2402085789       11.7956216000
 N      -15.3310015560       12.3418524584       12.3839958000
 N      -16.8870000000       13.2402085789        9.8929958000
Al      -13.7750015560       15.0369235150       14.2866216000
Al      -15.3310000000       15.9352796355       11.7956216000
 N      -13.7750015560       15.0369235150       12.3839958000
 N      -15.3310000000       15.9352796355        9.8929958000
Al      -15.3310015560       12.3418524584       19.2686216000
Al      -16.8870000000       13.2402085789       16.7776216000
 N      -15.3310015560       12.3418524584       17.3659958000
 N      -16.8870000000       13.2402085789       14.8749958000
Al      -13.7750015560       15.0369235150       19.2686216000
Al      -15.3310000000       15.9352796355       16.7776216000
 N      -13.7750015560       15.0369235150       17.3659958000
 N      -15.3310000000       15.9352796355       14.8749958000
 N      -16.8870000000       13.2402085789       19.8569958000
 N      -15.3310000000       15.9352796355       19.8569958000
Al      -15.3310015560       17.7319945716      -15.6053784000
Al      -16.8870000000       18.6303506921      -18.0963784000
 N      -15.3310015560       17.7319945716      -17.5080042000
 N      -16.8870000000       18.6303506921      -19.9990042000
Al      -15.3310015560       17.7319945716      -10.6233784000
Al      -16.8870000000       18.6303506921      -13.1143784000
 N      -15.3310015560       17.7319945716      -12.5260042000
 N      -16.8870000000       18.6303506921      -15.0170042000
Al      -15.3310015560       17.7319945716       -5.6413784000
Al      -16.8870000000       18.6303506921       -8.1323784000
 N      -15.3310015560       17.7319945716       -7.5440042000
 N      -16.8870000000       18.6303506921      -10.0350042000
Al      -15.3310015560       17.7319945716       -0.6593784000
Al      -16.8870000000       18.6303506921       -3.1503784000
 N      -15.3310015560       17.7319945716       -2.5620042000
 N      -16.8870000000       18.6303506921       -5.0530042000
Al      -15.3310015560       17.7319945716        4.3226216000
Al      -16.8870000000       18.6303506921        1.8316216000
 N      -15.3310015560       17.7319945716        2.4199958000
 N      -16.8870000000       18.6303506921       -0.0710042000
Al      -15.3310015560       17.7319945716        9.3046216000
Al      -16.8870000000       18.6303506921        6.8136216000
 N      -15.3310015560       17.7319945716        7.4019958000
 N      -16.8870000000       18.6303506921        4.9109958000
Al      -15.3310015560       17.7319945716       14.2866216000
Al      -16.8870000000       18.6303506921       11.7956216000
 N      -15.3310015560       17.7319945716       12.3839958000
 N      -16.8870000000       18.6303506921        9.8929958000
Al      -15.3310015560       17.7319945716       19.2686216000
Al      -16.8870000000       18.6303506921       16.7776216000
 N      -15.3310015560       17.7319945716       17.3659958000
 N      -16.8870000000       18.6303506921       14.8749958000
 N      -16.8870000000       18.6303506921       19.8569958000
Al      -12.2190015560      -19.9990002205      -15.6053784000
Al      -13.7750000000      -19.1006441000      -18.0963784000
 N      -12.2190015560      -19.9990002205      -17.5080042000
 N      -13.7750000000      -19.1006441000      -19.9990042000
Al      -10.6630015560      -17.3039291639      -15.6053784000
Al      -12.2190000000      -16.4055730434      -18.0963784000
 N      -10.6630015560      -17.3039291639      -17.5080042000
 N      -12.2190000000      -16.4055730434      -19.9990042000
Al      -12.2190015560      -19.9990002205      -10.6233784000
Al      -13.7750000000      -19.1006441000      -13.1143784000
 N      -12.2190015560      -19.9990002205      -12.5260042000
 N      -13.7750000000      -19.1006441000      -15.0170042000
Al      -10.6630015560      -17.3039291639      -10.6233784000
Al      -12.2190000000      -16.4055730434      -13.1143784000
 N      -10.6630015560      -17.3039291639      -12.5260042000
 N      -12.2190000000      -16.4055730434      -15.0170042000
Al      -12.2190015560      -19.9990002205       -5.6413784000
Al      -13.7750000000      -19.1006441000       -8.1323784000
 N      -12.2190015560      -19.9990002205       -7.5440042000
 N      -13.7750000000      -19.1006441000      -10.0350042000
Al      -10.6630015560      -17.3039291639       -5.6413784000
Al      -12.2190000000      -16.4055730434       -8.1323784000
 N      -10.6630015560      -17.3039291639       -7.5440042000
 N      -12.2190000000      -16.4055730434      -10.0350042000
Al      -12.2190015560      -19.9990002205       -0.6593784000
Al      -13.7750000000      -19.1006441000       -3.1503784000
 N      -12.2190015560      -19.9990002205       -2.5620042000
 N      -13.7750000000      -19.1006441000       -5.0530042000
Al      -10.6630015560      -17.3039291639       -0.6593784000
Al      -12.2190000000      -16.4055730434       -3.1503784000
 N      -10.6630015560      -17.3039291639       -2.5620042000
 N      -12.2190000000      -16.4055730434       -5.0530042000
Al      -12.2190015560      -19.9990002205        4.3226216000
Al      -13.7750000000      -19.1006441000        1.8316216000
 N      -12.2190015560      -19.9990002205        2.4199958000
 N      -13.7750000000      -19.1006441000       -0.0710042000
Al      -10.6630015560      -17.3039291639        4.3226216000
Al      -12.2190000000      -16.4055730434        1.8316216000
 N      -10.6630015560      -17.3039291639        2.4199958000
 N      -12.2190000000      -16.4055730434       -0.0710042000
Al      -12.2190015560      -19.9990002205        9.3046216000
Al      -13.7750000000      -19.1006441000        6.8136216000
 N      -12.2190015560      -19.9990002205        7.4019958000
 N      -13.7750000000      -19.1006441000        4.9109958000
Al      -10.6630015560      -17.3039291639        9.3046216000
Al      -12.2190000000      -16.4055730434        6.8136216000
 N      -10.6630015560      -17.3039291639        7.4019958000
 N      -12.2190000000      -16.4055730434        4.9109958000
Al      -12.2190015560      -19.9990002205       14.2866216000
Al      -13.7750000000      -19.1006441000       11.7956216000
 N      -12.2190015560      -19.9990002205       12.3839958000
 N      -13.7750000000      -19.1006441000        9.8929958000
Al      -10.6630015560      -17.3039291639       14.2866216000
Al      -12.2190000000      -16.4055730434       11.7956216000
 N      -10.6630015560      -17.3039291639       12.3839958000
 N      -12.2190000000      -16.4055730434        9.8929958000
Al      -12.2190015560      -19.9990002205       19.2686216000
Al      -13.7750000000      -19.1006441000       16.7776216000
 N      -12.2190015560      -19.9990002205       17.3659958000
 N      -13.7750000000      -19.1006441000       14.8749958000
Al      -10.6630015560      -17.3039291639       19.2686216000
Al      -12.2190000000      -16.4055730434       16.7776216000
 N      -10.6630015560      -17.3039291639       17.3659958000
 N      -12.2190000000      -16.4055730434       14.8749958000
 N      -13.7750000000      -19.1006441000       19.8569958000
 N      -12.2190000000      -16.4055730434       19.8569958000
Al      -12.2190015560      -14.6088581073      -15.6053784000
Al      -13.7750000000      -13.7105019868      -18.0963784000
 N      -12.2190015560      -14.6088581073      -17.5080042000
 N      -13.7750000000      -13.7105019868      -19.9990042000
Al      -10.6630015560      -11.9137870508      -15.6053784000
Al      -12.2190000000      -11.0154309303      -18.0963784000
 N      -10.6630015560      -11.9137870508      -17.5080042000
 N      -12.2190000000      -11.0154309303      -19.9990042000
Al      -12.2190015560      -14.6088581073      -10.6233784000
Al      -13.7750000000      -13.7105019868      -13.1143784000
 N      -12.2190015560      -14.6088581073      -12.5260042000
 N      -13.7750000000      -13.7105019868      -15.0170042000
Al      -10.6630015560      -11.9137870508      -10.6233784000
Al      -12.2190000000      -11.0154309303      -13.1143784000
 N      -10.6630015560      -11.9137870508      -12.5260042000
 N      -12.2190000000      -11.0154309303      -15.0170042000
Al      -12.2190015560      -14.6088581073       -5.6413784000
Al      -13.7750000000      -13.7105019868       -8.1323784000
 N      -12.2190015560      -14.6088581073       -7.5440042000
 N      -13.7750000000      -13.7105019868      -10.0350042000
Al      -10.6630015560      -11.9137870508       -5.6413784000
Al      -12.2190000000      -11.0154309303       -8.1323784000
 N      -10.6630015560      -11.9137870508       -7.5440042000
 N      -12.2190000000      -11.0154309303      -10.0350042000
Al      -12.2190015560      -14.6088581073       -0.6593784000
Al      -13.7750000000      -13.7105019868       -3.1503784000
 N      -12.2190015560      -14.6088581073       -2.5620042000
 N      -13.7750000000      -13.7105019868       -5.0530042000
Al      -10.6630015560      -11.9137870508       -0.6593784000
Al      -12.2190000000      -11.0154309303       -3.1503784000
 N      -10.6630015560      -11.9137870508       -2.5620042000
 N      -12.2190000000      -11.0154309303       -5.0530042000
Al      -12.2190015560      -14.6088581073        4.3226216000
Al      -13.7750000000      -13.7105019868        1.8316216000
 N      -12.2190015560      -14.6088581073        2.4199958000
 N      -13.7750000000      -13.7105019868       -0.0710042000
Al      -10.6630015560      -11.9137870508        4.3226216000
Al      -12.2190000000      -11.0154309303        1.8316216000
 N      -10.6630015560      -11.9137870508        2.4199958000
 N      -12.2190000000      -11.0154309303       -0.0710042000
Al      -12.2190015560      -14.6088581073        9.3046216000
Al      -13.7750000000      -13.7105019868        6.8136216000
 N      -12.2190015560      -14.6088581073        7.4019958000
 N      -13.7750000000      -13.7105019868        4.9109958000
Al      -10.6630015560      -11.9137870508        9.3046216000
Al      -12.2190000000      -11.0154309303        6.8136216000
 N      -10.6630015560      -11.9137870508        7.4019958000
 N      -12.2190000000      -11.0154309303        4.9109958000
Al      -12.2190015560      -14.6088581073       14.2866216000
Al      -13.7750000000      -13.7105019868       11.7956216000
 N      -12.2190015560      -14.6088581073       12.3839958000
 N      -13.7750000000      -13.7105019868        9.8929958000
Al      -10.6630015560      -11.9137870508       14.2866216000
Al      -12.2190000000      -11.0154309303       11.7956216000
 N      -10.6630015560      -11.9137870508       12.3839958000
 N      -12.2190000000      -11.0154309303        9.8929958000
Al      -12.2190015560      -14.6088581073       19.2686216000
Al      -13.7750000000      -13.7105019868       16.7776216000
 N      -12.2190015560      -14.6088581073       17.3659958000
 N      -13.7750000000      -13.7105019868       14.8749958000
Al      -10.6630015560      -11.9137870508       19.2686216000
Al      -12.2190000000      -11.0154309303       16.7776216000
 N      -10.6630015560      -11.9137870508       17.3659958000
 N      -12.2190000000      -11.0154309303       14.8749958000
 N      -13.7750000000      -13.7105019868       19.8569958000
 N      -12.2190000000      -11.0154309303       19.8569958000
Al      -12.2190015560       -9.2187159942      -15.6053784000
Al      -13.7750000000       -8.3203598737      -18.0963784000
 N      -12.2190015560       -9.2187159942      -17.5080042000
 N      -13.7750000000       -8.3203598737      -19.9990042000
Al      -10.6630015560       -6.5236449376      -15.6053784000
Al      -12.2190000000       -5.6252888171      -18.0963784000
 N      -10.6630015560       -6.5236449376      -17.5080042000
 N      -12.2190000000       -5.6252888171      -19.9990042000
Al      -12.2190015560       -9.2187159942      -10.6233784000
Al      -13.7750000000       -8.3203598737      -13.1143784000
 N      -12.2190015560       -9.2187159942      -12.5260042000
 N      -13.7750000000       -8.3203598737      -15.0170042000
Al      -10.6630015560       -6.5236449376      -10.6233784000
Al      -12.2190000000       -5.6252888171      -13.1143784000
 N      -10.6630015560       -6.5236449376      -12.5260042000
 N      -12.2190000000       -5.6252888171      -15.0170042000
Al      -12.2190015560       -9.2187159942       -5.6413784000
Al      -13.7750000000       -8.3203598737       -8.1323784000
 N      -12.2190015560       -9.2187159942       -7.5440042000
 N      -13.7750000000       -8.3203598737      -10.0350042000
Al      -10.6630015560       -6.5236449376       -5.6413784000
Al      -12.2190000000       -5.6252888171       -8.1323784000
 N      -10.6630015560       -6.5236449376       -7.5440042000
 N      -12.2190000000       -5.6252888171      -10.0350042000
Al      -12.2190015560       -9.2187159942       -0.6593784000
Al      -13.7750000000       -8.3203598737       -3.1503784000
 N      -12.2190015560       -9.2187159942       -2.5620042000
 N      -13.7750000000       -8.3203598737       -5.0530042000
Al      -10.6630015560       -6.5236449376       -0.6593784000
Al      -12.2190000000       -5.6252888171       -3.1503784000
 N      -10.6630015560       -6.5236449376       -2.5620042000
 N      -12.2190000000       -5.6252888171       -5.0530042000
Al      -12.2190015560       -9.2187159942        4.3226216000
Al      -13.7750000000       -8.3203598737        1.8316216000
 N      -12.2190015560       -9.2187159942        2.4199958000
 N      -13.7750000000       -8.3203598737       -0.0710042000
Al      -10.6630015560       -6.5236449376        4.3226216000
Al      -12.2190000000       -5.6252888171        1.8316216000
 N      -10.6630015560       -6.5236449376        2.4199958000
 N      -12.2190000000       -5.6252888171       -0.0710042000
Al      -12.2190015560       -9.2187159942        9.3046216000
Al      -13.7750000000       -8.3203598737        6.8136216000
 N      -12.2190015560       -9.2187159942        7.4019958000
 N      -13.7750000000       -8.3203598737        4.9109958000
Al      -10.6630015560       -6.5236449376        9.3046216000
Al      -12.2190000000       -5.6252888171        6.8136216000
 N      -10.6630015560       -6.5236449376        7.4019958000
 N      -12.2190000000       -5.6252888171        4.9109958000
Al      -12.2190015560       -9.2187159942       14.2866216000
Al      -13.7750000000       -8.3203598737       11.7956216000
 N      -12.2190015560       -9.2187159942       12.3839958000
 N      -13.7750000000       -8.3203598737        9.8929958000
Al      -10.6630015560       -6.5236449376       14.2866216000
Al      -12.2190000000       -5.6252888171       11.7956216000
 N      -10.6630015560       -6.5236449376       12.3839958000
 N      -12.2190000000       -5.6252888171        9.8929958000
Al      -12.2190015560       -9.2187159942       19.2686216000
Al      -13.7750000000       -8.3203598737       16.7776216000
 N      -12.2190015560       -9.2187159942       17.3659958000
 N      -13.7750000000       -8.3203598737       14.8749958000
Al      -10.6630015560       -6.5236449376       19.2686216000
Al      -12.2190000000       -5.6252888171       16.7776216000
 N      -10.6630015560       -6.5236449376       17.3659958000
 N      -12.2190000000       -5.6252888171       14.8749958000
 N      -13.7750000000       -8.3203598737       19.8569958000
 N      -12.2190000000       -5.6252888171       19.8569958000
Al      -12.2190015560       -3.8285738810      -15.6053784000
Al      -13.7750000000       -2.9302177605      -18.0963784000
 N      -12.2190015560       -3.8285738810      -17.5080042000
 N      -13.7750000000       -2.9302177605      -19.9990042000
Al      -10.6630015560       -1.1335028245      -15.6053784000
Al      -12.2190000000       -0.2351467040      -18.0963784000
 N      -10.6630015560       -1.1335028245      -17.5080042000
 N      -12.2190000000       -0.2351467040      -19.9990042000
Al      -12.2190015560       -3.8285738810      -10.6233784000
Al      -13.7750000000       -2.9302177605      -13.1143784000
 N      -12.2190015560       -3.8285738810      -12.5260042000
 N      -13.7750000000       -2.9302177605      -15.0170042000
Al      -10.6630015560       -1.1335028245      -10.6233784000
Al      -12.2190000000       -0.2351467040      -13.1143784000
 N      -10.6630015560       -1.1335028245      -12.5260042000
 N      -12.2190000000       -0.2351467040      -15.0170042000
Al      -12.2190015560       -3.8285738810       -5.6413784000
Al      -13.7750000000       -2.9302177605       -8.1323784000
 N      -12.2190015560       -3.8285738810       -7.5440042000
 N      -13.7750000000       -2.9302177605      -10.0350042000
Al      -10.6630015560       -1.1335028245       -5.6413784000
Al      -12.2190000000       -0.2351467040       -8.1323784000
 N      -10.6630015560       -1.1335028245       -7.5440042000
 N      -12.2190000000       -0.2351467040      -10.0350042000
Al      -12.2190015560       -3.8285738810       -0.6593784000
Al      -13.7750000000       -2.9302177605       -3.1503784000
 N      -12.2190015560       -3.8285738810       -2.5620042000
 N      -13.7750000000       -2.9302177605       -5.0530042000
Al      -10.6630015560       -1.1335028245       -0.6593784000
Al      -12.2190000000       -0.2351467040       -3.1503784000
 N      -10.6630015560       -1.1335028245       -2.5620042000
 N      -12.2190000000       -0.2351467040       -5.0530042000
Al      -12.2190015560       -3.8285738810        4.3226216000
Al      -13.7750000000       -2.9302177605        1.8316216000
 N      -12.2190015560       -3.8285738810        2.4199958000
 N      -13.7750000000       -2.9302177605       -0.0710042000
Al      -10.6630015560       -1.1335028245        4.3226216000
Al      -12.2190000000       -0.2351467040        1.8316216000
 N      -10.6630015560       -1.1335028245        2.4199958000
 N      -12.2190000000       -0.2351467040       -0.0710042000
Al      -12.2190015560       -3.8285738810        9.3046216000
Al      -13.7750000000       -2.9302177605        6.8136216000
 N      -12.2190015560       -3.8285738810        7.4019958000
 N      -13.7750000000       -2.9302177605        4.9109958000
Al      -10.6630015560       -1.1335028245        9.3046216000
Al      -12.2190000000       -0.2351467040        6.8136216000
 N      -10.6630015560       -1.1335028245        7.4019958000
 N      -12.2190000000       -0.2351467040        4.9109958000
Al      -12.2190015560       -3.8285738810       14.2866216000
Al      -13.7750000000       -2.9302177605       11.7956216000
 N      -12.2190015560       -3.8285738810       12.3839958000
 N      -13.7750000000       -2.9302177605        9.8929958000
Al      -10.6630015560       -1.1335028245       14.2866216000
Al      -12.2190000000       -0.2351467040       11.7956216000
 N      -10.6630015560       -1.1335028245       12.3839958000
 N      -12.2190000000       -0.2351467040        9.8929958000
Al      -12.2190015560       -3.8285738810       19.2686216000
Al      -13.7750000000       -2.9302177605       16.7776216000
 N      -12.2190015560       -3.8285738810       17.3659958000
 N      -13.7750000000       -2.9302177605       14.8749958000
Al      -10.6630015560       -1.1335028245       19.2686216000
Al      -12.2190000000       -0.2351467040       16.7776216000
 N      -10.6630015560       -1.1335028245       17.3659958000
 N      -12.2190000000       -0.2351467040       14.8749958000
 N      -13.7750000000       -2.9302177605       19.8569958000
 N      -12.2190000000       -0.2351467040       19.8569958000
Al      -12.2190015560        1.5615682321      -15.6053784000
Al      -13.7750000000        2.4599243526      -18.0963784000
 N      -12.2190015560        1.5615682321      -17.5080042000
 N      -13.7750000000        2.4599243526      -19.9990042000
Al      -10.6630015560        4.2566392887      -15.6053784000
Al      -12.2190000000        5.1549954092      -18.0963784000
 N      -10.6630015560        4.2566392887      -17.5080042000
 N      -12.2190000000        5.1549954092      -19.9990042000
Al      -12.2190015560        1.5615682321      -10.6233784000
Al      -13.7750000000        2.4599243526      -13.1143784000
 N      -12.2190015560        1.5615682321      -12.5260042000
 N      -13.7750000000        2.4599243526      -15.0170042000
Al      -10.6630015560        4.2566392887      -10.6233784000
Al      -12.2190000000        5.1549954092      -13.1143784000
 N      -10.6630015560        4.2566392887      -12.5260042000
 N      -12.2190000000        5.1549954092      -15.0170042000
Al      -12.2190015560        1.5615682321       -5.6413784000
Al      -13.7750000000        2.4599243526       -8.1323784000
 N      -12.2190015560        1.5615682321       -7.5440042000
 N      -13.7750000000        2.4599243526      -10.0350042000
Al      -10.6630015560        4.2566392887       -5.6413784000
Al      -12.2190000000        5.1549954092       -8.1323784000
 N      -10.6630015560        4.2566392887       -7.5440042000
 N      -12.2190000000        5.1549954092      -10.0350042000
Al      -12.2190015560        1.5615682321       -0.6593784000
Al      -13.7750000000        2.4599243526       -3.1503784000
 N      -12.2190015560        1.5615682321       -2.5620042000
 N      -13.7750000000        2.4599243526       -5.0530042000
Al      -10.6630015560        4.2566392887       -0.6593784000
Al      -12.2190000000        5.1549954092       -3.1503784000
 N      -10.6630015560        4.2566392887       -2.5620042000
 N      -12.2190000000        5.1549954092       -5.0530042000
Al      -12.2190015560        1.5615682321        4.3226216000
Al      -13.7750000000        2.4599243526        1.8316216000
 N      -12.2190015560        1.5615682321        2.4199958000
 N      -13.7750000000        2.4599243526       -0.0710042000
Al      -10.6630015560        4.2566392887        4.3226216000
Al      -12.2190000000        5.1549954092        1.8316216000
 N      -10.6630015560        4.2566392887        2.4199958000
 N      -12.2190000000        5.1549954092       -0.0710042000
Al      -12.2190015560        1.5615682321        9.3046216000
Al      -13.7750000000        2.4599243526        6.8136216000
 N      -12.2190015560        1.5615682321        7.4019958000
 N      -13.7750000000        2.4599243526        4.9109958000
Al      -10.6630015560        4.2566392887        9.3046216000
Al      -12.2190000000        5.1549954092        6.8136216000
 N      -10.6630015560        4.2566392887        7.4019958000
 N      -12.2190000000        5.1549954092        4.9109958000
Al      -12.2190015560        1.5615682321       14.2866216000
Al      -13.7750000000        2.4599243526       11.7956216000
 N      -12.2190015560        1.5615682321       12.3839958000
 N      -13.7750000000        2.4599243526        9.8929958000
Al      -10.6630015560        4.2566392887       14.2866216000
Al      -12.2190000000        5.1549954092       11.7956216000
 N      -10.6630015560        4.2566392887       12.3839958000
 N      -12.2190000000        5.1549954092        9.8929958000
Al      -12.2190015560        1.5615682321       19.2686216000
Al      -13.7750000000        2.4599243526       16.7776216000
 N      -12.2190015560        1.5615682321       17.3659958000
 N      -13.7750000000        2.4599243526       14.8749958000
Al      -10.6630015560        4.2566392887       19.2686216000
Al      -12.2190000000        5.1549954092       16.7776216000
 N      -10.6630015560        4.2566392887       17.3659958000
 N      -12.2190000000        5.1549954092       14.8749958000
 N      -13.7750000000        2.4599243526       19.8569958000
 N      -12.2190000000        5.1549954092       19.8569958000
Al      -12.2190015560        6.9517103453      -15.6053784000
Al      -13.7750000000        7.8500664658      -18.0963784000
 N      -12.2190015560        6.9517103453      -17.5080042000
 N      -13.7750000000        7.8500664658      -19.9990042000
Al      -10.6630015560        9.6467814018      -15.6053784000
Al      -12.2190000000       10.5451375223      -18.0963784000
 N      -10.6630015560        9.6467814018      -17.5080042000
 N      -12.2190000000       10.5451375223      -19.9990042000
Al      -12.2190015560        6.9517103453      -10.6233784000
Al      -13.7750000000        7.8500664658      -13.1143784000
 N      -12.2190015560        6.9517103453      -12.5260042000
 N      -13.7750000000        7.8500664658      -15.0170042000
Al      -10.6630015560        9.6467814018      -10.6233784000
Al      -12.2190000000       10.5451375223      -13.1143784000
 N      -10.6630015560        9.6467814018      -12.5260042000
 N      -12.2190000000       10.5451375223      -15.0170042000
Al      -12.2190015560        6.9517103453       -5.6413784000
Al      -13.7750000000        7.8500664658       -8.1323784000
 N      -12.2190015560        6.9517103453       -7.5440042000
 N      -13.7750000000        7.8500664658      -10.0350042000
Al      -10.6630015560        9.6467814018       -5.6413784000
Al      -12.2190000000       10.5451375223       -8.1323784000
 N      -10.6630015560        9.6467814018       -7.5440042000
 N      -12.2190000000       10.5451375223      -10.0350042000
Al      -12.2190015560        6.9517103453       -0.6593784000
Al      -13.7750000000        7.8500664658       -3.1503784000
 N      -12.2190015560        6.9517103453       -2.5620042000
 N      -13.7750000000        7.8500664658       -5.0530042000
Al      -10.6630015560        9.6467814018       -0.6593784000
Al      -12.2190000000       10.5451375223       -3.1503784000
 N      -10.6630015560        9.6467814018       -2.5620042000
 N      -12.2190000000       10.5451375223       -5.0530042000
Al      -12.2190015560        6.9517103453        4.3226216000
Al      -13.7750000000        7.8500664658        1.8316216000
 N      -12.2190015560        6.9517103453        2.4199958000
 N      -13.7750000000        7.8500664658       -0.0710042000
Al      -10.6630015560        9.6467814018        4.3226216000
Al      -12.2190000000       10.5451375223        1.8316216000
 N      -10.6630015560        9.6467814018        2.4199958000
 N      -12.2190000000       10.5451375223       -0.0710042000
Al      -12.2190015560        6.9517103453        9.3046216000
Al      -13.7750000000        7.8500664658        6.8136216000
 N      -12.2190015560        6.9517103453        7.4019958000
 N      -13.7750000000        7.8500664658        4.9109958000
Al      -10.6630015560        9.6467814018        9.3046216000
Al      -12.2190000000       10.5451375223        6.8136216000
 N      -10.6630015560        9.6467814018        7.4019958000
 N      -12.2190000000       10.5451375223        4.9109958000
Al      -12.2190015560        6.9517103453       14.2866216000
Al      -13.7750000000        7.8500664658       11.7956216000
 N      -12.2190015560        6.9517103453       12.3839958000
 N      -13.7750000000        7.8500664658        9.8929958000
Al      -10.6630015560        9.6467814018       14.2866216000
Al      -12.2190000000       10.5451375223       11.7956216000
 N      -10.6630015560        9.6467814018       12.3839958000
 N      -12.2190000000       10.5451375223        9.8929958000
Al      -12.2190015560        6.9517103453       19.2686216000
Al      -13.7750000000        7.8500664658       16.7776216000
 N      -12.2190015560        6.9517103453       17.3659958000
 N      -13.7750000000        7.8500664658       14.8749958000
Al      -10.6630015560        9.6467814018       19.2686216000
Al      -12.2190000000       10.5451375223       16.7776216000
 N      -10.6630015560        9.6467814018       17.3659958000
 N      -12.2190000000       10.5451375223       14.8749958000
 N      -13.7750000000        7.8500664658       19.8569958000
 N      -12.2190000000       10.5451375223       19.8569958000
Al      -12.2190015560       12.3418524584      -15.6053784000
Al      -13.7750000000       13.2402085789      -18.0963784000
 N      -12.2190015560       12.3418524584      -17.5080042000
 N      -13.7750000000       13.2402085789      -19.9990042000
Al      -10.6630015560       15.0369235150      -15.6053784000
Al      -12.2190000000       15.9352796355      -18.0963784000
 N      -10.6630015560       15.0369235150      -17.5080042000
 N      -12.2190000000       15.9352796355      -19.9990042000
Al      -12.2190015560       12.3418524584      -10.6233784000
Al      -13.7750000000       13.2402085789      -13.1143784000
 N      -12.2190015560       12.3418524584      -12.5260042000
 N      -13.7750000000       13.2402085789      -15.0170042000
Al      -10.6630015560       15.0369235150      -10.6233784000
Al      -12.2190000000       15.9352796355      -13.1143784000
 N      -10.6630015560       15.0369235150      -12.5260042000
 N      -12.2190000000       15.9352796355      -15.0170042000
Al      -12.2190015560       12.3418524584       -5.6413784000
Al      -13.7750000000       13.2402085789       -8.1323784000
 N      -12.2190015560       12.3418524584       -7.5440042000
 N      -13.7750000000       13.2402085789      -10.0350042000
Al      -10.6630015560       15.0369235150       -5.6413784000
Al      -12.2190000000       15.9352796355       -8.1323784000
 N      -10.6630015560       15.0369235150       -7.5440042000
 N      -12.2190000000       15.9352796355      -10.0350042000
Al      -12.2190015560       12.3418524584       -0.6593784000
Al      -13.7750000000       13.2402085789       -3.1503784000
 N      -12.2190015560       12.3418524584       -2.5620042000
 N      -13.7750000000       13.2402085789       -5.0530042000
Al      -10.6630015560       15.0369235150       -0.6593784000
Al      -12.2190000000       15.9352796355       -3.1503784000
 N      -10.6630015560       15.0369235150       -2.5620042000
 N      -12.2190000000       15.9352796355       -5.0530042000
Al      -12.2190015560       12.3418524584        4.3226216000
Al      -13.7750000000       13.2402085789        1.8316216000
 N      -12.2190015560       12.3418524584        2.4199958000
 N      -13.7750000000       13.2402085789       -0.0710042000
Al      -10.6630015560       15.0369235150        4.3226216000
Al      -12.2190000000       15.9352796355        1.8316216000
 N      -10.6630015560       15.0369235150        2.4199958000
 N      -12.2190000000       15.9352796355       -0.0710042000
Al      -12.2190015560       12.3418524584        9.3046216000
Al      -13.7750000000       13.2402085789        6.8136216000
 N      -12.2190015560       12.3418524584        7.4019958000
 N      -13.7750000000       13.2402085789        4.9109958000
Al      -10.6630015560       15.0369235150        9.3046216000
Al      -12.2190000000       15.9352796355        6.8136216000
 N      -10.6630015560       15.0369235150        7.4019958000
 N      -12.2190000000       15.9352796355        4.9109958000
Al      -12.2190015560       12.3418524584       14.2866216000
Al      -13.7750000000       13.2402085789       11.7956216000
 N      -12.2190015560       12.3418524584       12.3839958000
 N      -13.7750000000       13.2402085789        9.8929958000
Al      -10.6630015560       15.0369235150       14.2866216000
Al      -12.2190000000       15.9352796355       11.7956216000
 N      -10.6630015560       15.0369235150       12.3839958000
 N      -12.2190000000       15.9352796355        9.8929958000
Al      -12.2190015560       12.3418524584       19.2686216000
Al      -13.7750000000       13.2402085789       16.7776216000
 N      -12.2190015560       12.3418524584       17.3659958000
 N      -13.7750000000       13.2402085789       14.8749958000
Al      -10.6630015560       15.0369235150       19.2686216000
Al      -12.2190000000       15.9352796355       16.7776216000
 N      -10.6630015560       15.0369235150       17.3659958000
 N      -12.2190000000       15.9352796355       14.8749958000
 N      -13.7750000000       13.2402085789       19.8569958000
 N      -12.2190000000       15.9352796355       19.8569958000
Al      -12.2190015560       17.7319945716      -15.6053784000
Al      -13.7750000000       18.6303506921      -18.0963784000
 N      -12.2190015560       17.7319945716      -17.5080042000
 N      -13.7750000000       18.6303506921      -19.9990042000
Al      -12.2190015560       17.7319945716      -10.6233784000
Al      -13.7750000000       18.6303506921      -13.1143784000
 N      -12.2190015560       17.7319945716      -12.5260042000
 N      -13.7750000000       18.6303506921      -15.0170042000
Al      -12.2190015560       17.7319945716       -5.6413784000
Al      -13.7750000000       18.6303506921       -8.1323784000
 N      -12.2190015560       17.7319945716       -7.5440042000
 N      -13.7750000000       18.6303506921      -10.0350042000
Al      -12.2190015560       17.7319945716       -0.6593784000
Al      -13.7750000000       18.6303506921       -3.1503784000
 N      -12.2190015560       17.7319945716       -2.5620042000
 N      -13.7750000000       18.6303506921       -5.0530042000
Al      -12.2190015560       17.7319945716        4.3226216000
Al      -13.7750000000       18.6303506921        1.8316216000
 N      -12.2190015560       17.7319945716        2.4199958000
 N      -13.7750000000       18.6303506921       -0.0710042000
Al      -12.2190015560       17.7319945716        9.3046216000
Al      -13.7750000000       18.6303506921        6.8136216000
 N      -12.2190015560       17.7319945716        7.4019958000
 N      -13.7750000000       18.6303506921        4.9109958000
Al      -12.2190015560       17.7319945716       14.2866216000
Al      -13.7750000000       18.6303506921       11.7956216000
 N      -12.2190015560       17.7319945716       12.3839958000
 N      -13.7750000000       18.6303506921        9.8929958000
Al      -12.2190015560       17.7319945716       19.2686216000
Al      -13.7750000000       18.6303506921       16.7776216000
 N      -12.2190015560       17.7319945716       17.3659958000
 N      -13.7750000000       18.6303506921       14.8749958000
 N      -13.7750000000       18.6303506921       19.8569958000
Al       -9.1070015560      -19.9990002205      -15.6053784000
Al      -10.6630000000      -19.1006441000      -18.0963784000
 N       -9.1070015560      -19.9990002205      -17.5080042000
 N      -10.6630000000      -19.1006441000      -19.9990042000
Al       -7.5510015560      -17.3039291639      -15.6053784000
Al       -9.1070000000      -16.4055730434      -18.0963784000
 N       -7.5510015560      -17.3039291639      -17.5080042000
 N       -9.1070000000      -16.4055730434      -19.9990042000
Al       -9.1070015560      -19.9990002205      -10.6233784000
Al      -10.6630000000      -19.1006441000      -13.1143784000
 N       -9.1070015560      -19.9990002205      -12.5260042000
 N      -10.6630000000      -19.1006441000      -15.0170042000
Al       -7.5510015560      -17.3039291639      -10.6233784000
Al       -9.1070000000      -16.4055730434      -13.1143784000
 N       -7.5510015560      -17.3039291639      -12.5260042000
 N       -9.1070000000      -16.4055730434      -15.0170042000
Al       -9.1070015560      -19.9990002205       -5.6413784000
Al      -10.6630000000      -19.1006441000       -8.1323784000
 N       -9.1070015560      -19.9990002205       -7.5440042000
 N      -10.6630000000      -19.1006441000      -10.0350042000
Al       -7.5510015560      -17.3039291639       -5.6413784000
Al       -9.1070000000      -16.4055730434       -8.1323784000
 N       -7.5510015560      -17.3039291639       -7.5440042000
 N       -9.1070000000      -16.4055730434      -10.0350042000
Al       -9.1070015560      -19.9990002205       -0.6593784000
Al      -10.6630000000      -19.1006441000       -3.1503784000
 N       -9.1070015560      -19.9990002205       -2.5620042000
 N      -10.6630000000      -19.1006441000       -5.0530042000
Al       -7.5510015560      -17.3039291639       -0.6593784000
Al       -9.1070000000      -16.4055730434       -3.1503784000
 N       -7.5510015560      -17.3039291639       -2.5620042000
 N       -9.1070000000      -16.4055730434       -5.0530042000
Al       -9.1070015560      -19.9990002205        4.3226216000
Al      -10.6630000000      -19.1006441000        1.8316216000
 N       -9.1070015560      -19.9990002205        2.4199958000
 N      -10.6630000000      -19.1006441000       -0.0710042000
Al       -7.5510015560      -17.3039291639        4.3226216000
Al       -9.1070000000      -16.4055730434        1.8316216000
 N       -7.5510015560      -17.3039291639        2.4199958000
 N       -9.1070000000      -16.4055730434       -0.0710042000
Al       -9.1070015560      -19.9990002205        9.3046216000
Al      -10.6630000000      -19.1006441000        6.8136216000
 N       -9.1070015560      -19.9990002205        7.4019958000
 N      -10.6630000000      -19.1006441000        4.9109958000
Al       -7.5510015560      -17.3039291639        9.3046216000
Al       -9.1070000000      -16.4055730434        6.8136216000
 N       -7.5510015560      -17.3039291639        7.4019958000
 N       -9.1070000000      -16.4055730434        4.9109958000
Al       -9.1070015560      -19.9990002205       14.2866216000
Al      -10.6630000000      -19.1006441000       11.7956216000
 N       -9.1070015560      -19.9990002205       12.3839958000
 N      -10.6630000000      -19.1006441000        9.8929958000
Al       -7.5510015560      -17.3039291639       14.2866216000
Al       -9.1070000000      -16.4055730434       11.7956216000
 N       -7.5510015560      -17.3039291639       12.3839958000
 N       -9.1070000000      -16.4055730434        9.8929958000
Al       -9.1070015560      -19.9990002205       19.2686216000
Al      -10.6630000000      -19.1006441000       16.7776216000
 N       -9.1070015560      -19.9990002205       17.3659958000
 N      -10.6630000000      -19.1006441000       14.8749958000
Al       -7.5510015560      -17.3039291639       19.2686216000
Al       -9.1070000000      -16.4055730434       16.7776216000
 N       -7.5510015560      -17.3039291639       17.3659958000
 N       -9.1070000000      -16.4055730434       14.8749958000
 N      -10.6630000000      -19.1006441000       19.8569958000
 N       -9.1070000000      -16.4055730434       19.8569958000
Al       -9.1070015560      -14.6088581073      -15.6053784000
Al      -10.6630000000      -13.7105019868      -18.0963784000
 N       -9.1070015560      -14.6088581073      -17.5080042000
 N      -10.6630000000      -13.7105019868      -19.9990042000
Al       -7.5510015560      -11.9137870508      -15.6053784000
Al       -9.1070000000      -11.0154309303      -18.0963784000
 N       -7.5510015560      -11.9137870508      -17.5080042000
 N       -9.1070000000      -11.0154309303      -19.9990042000
Al       -9.1070015560      -14.6088581073      -10.6233784000
Al      -10.6630000000      -13.7105019868      -13.1143784000
 N       -9.1070015560      -14.6088581073      -12.5260042000
 N      -10.6630000000      -13.7105019868      -15.0170042000
Al       -7.5510015560      -11.9137870508      -10.6233784000
Al       -9.1070000000      -11.0154309303      -13.1143784000
 N       -7.5510015560      -11.9137870508      -12.5260042000
 N       -9.1070000000      -11.0154309303      -15.0170042000
Al       -9.1070015560      -14.6088581073       -5.6413784000
Al      -10.6630000000      -13.7105019868       -8.1323784000
 N       -9.1070015560      -14.6088581073       -7.5440042000
 N      -10.6630000000      -13.7105019868      -10.0350042000
Al       -7.5510015560      -11.9137870508       -5.6413784000
Al       -9.1070000000      -11.0154309303       -8.1323784000
 N       -7.5510015560      -11.9137870508       -7.5440042000
 N       -9.1070000000      -11.0154309303      -10.0350042000
Al       -9.1070015560      -14.6088581073       -0.6593784000
Al      -10.6630000000      -13.7105019868       -3.1503784000
 N       -9.1070015560      -14.6088581073       -2.5620042000
 N      -10.6630000000      -13.7105019868       -5.0530042000
Al       -7.5510015560      -11.9137870508       -0.6593784000
Al       -9.1070000000      -11.0154309303       -3.1503784000
 N       -7.5510015560      -11.9137870508       -2.5620042000
 N       -9.1070000000      -11.0154309303       -5.0530042000
Al       -9.1070015560      -14.6088581073        4.3226216000
Al      -10.6630000000      -13.7105019868        1.8316216000
 N       -9.1070015560      -14.6088581073        2.4199958000
 N      -10.6630000000      -13.7105019868       -0.0710042000
Al       -7.5510015560      -11.9137870508        4.3226216000
Al       -9.1070000000      -11.0154309303        1.8316216000
 N       -7.5510015560      -11.9137870508        2.4199958000
 N       -9.1070000000      -11.0154309303       -0.0710042000
Al       -9.1070015560      -14.6088581073        9.3046216000
Al      -10.6630000000      -13.7105019868        6.8136216000
 N       -9.1070015560      -14.6088581073        7.4019958000
 N      -10.6630000000      -13.7105019868        4.9109958000
Al       -7.5510015560      -11.9137870508        9.3046216000
Al       -9.1070000000      -11.0154309303        6.8136216000
 N       -7.5510015560      -11.9137870508        7.4019958000
 N       -9.1070000000      -11.0154309303        4.9109958000
Al       -9.1070015560      -14.6088581073       14.2866216000
Al      -10.6630000000      -13.7105019868       11.7956216000
 N       -9.1070015560      -14.6088581073       12.3839958000
 N      -10.6630000000      -13.7105019868        9.8929958000
Al       -7.5510015560      -11.9137870508       14.2866216000
Al       -9.1070000000      -11.0154309303       11.7956216000
 N       -7.5510015560      -11.9137870508       12.3839958000
 N       -9.1070000000      -11.0154309303        9.8929958000
Al       -9.1070015560      -14.6088581073       19.2686216000
Al      -10.6630000000      -13.7105019868       16.7776216000
 N       -9.1070015560      -14.6088581073       17.3659958000
 N      -10.6630000000      -13.7105019868       14.8749958000
Al       -7.5510015560      -11.9137870508       19.2686216000
Al       -9.1070000000      -11.0154309303       16.7776216000
 N       -7.5510015560      -11.9137870508       17.3659958000
 N       -9.1070000000      -11.0154309303       14.8749958000
 N      -10.6630000000      -13.7105019868       19.8569958000
 N       -9.1070000000      -11.0154309303       19.8569958000
Al       -9.1070015560       -9.2187159942      -15.6053784000
Al      -10.6630000000       -8.3203598737      -18.0963784000
 N       -9.1070015560       -9.2187159942      -17.5080042000
 N      -10.6630000000       -8.3203598737      -19.9990042000
Al       -7.5510015560       -6.5236449376      -15.6053784000
Al       -9.1070000000       -5.6252888171      -18.0963784000
 N       -7.5510015560       -6.5236449376      -17.5080042000
 N       -9.1070000000       -5.6252888171      -19.9990042000
Al       -9.1070015560       -9.2187159942      -10.6233784000
Al      -10.6630000000       -8.3203598737      -13.1143784000
 N       -9.1070015560       -9.2187159942      -12.5260042000
 N      -10.6630000000       -8.3203598737      -15.0170042000
Al       -7.5510015560       -6.5236449376      -10.6233784000
Al       -9.1070000000       -5.6252888171      -13.1143784000
 N       -7.5510015560       -6.5236449376      -12.5260042000
 N       -9.1070000000       -5.6252888171      -15.0170042000
Al       -9.1070015560       -9.2187159942       -5.6413784000
Al      -10.6630000000       -8.3203598737       -8.1323784000
 N       -9.1070015560       -9.2187159942       -7.5440042000
 N      -10.6630000000       -8.3203598737      -10.0350042000
Al       -7.5510015560       -6.5236449376       -5.6413784000
Al       -9.1070000000       -5.6252888171       -8.1323784000
 N       -7.5510015560       -6.5236449376       -7.5440042000
 N       -9.1070000000       -5.6252888171      -10.0350042000
Al       -9.1070015560       -9.2187159942       -0.6593784000
Al      -10.6630000000       -8.3203598737       -3.1503784000
 N       -9.1070015560       -9.2187159942       -2.5620042000
 N      -10.6630000000       -8.3203598737       -5.0530042000
Al       -7.5510015560       -6.5236449376       -0.6593784000
Al       -9.1070000000       -5.6252888171       -3.1503784000
 N       -7.5510015560       -6.5236449376       -2.5620042000
 N       -9.1070000000       -5.6252888171       -5.0530042000
Al       -9.1070015560       -9.2187159942        4.3226216000
Al      -10.6630000000       -8.3203598737        1.8316216000
 N       -9.1070015560       -9.2187159942        2.4199958000
 N      -10.6630000000       -8.3203598737       -0.0710042000
Al       -7.5510015560       -6.5236449376        4.3226216000
Al       -9.1070000000       -5.6252888171        1.8316216000
 N       -7.5510015560       -6.5236449376        2.4199958000
 N       -9.1070000000       -5.6252888171       -0.0710042000
Al       -9.1070015560       -9.2187159942        9.3046216000
Al      -10.6630000000       -8.3203598737        6.8136216000
 N       -9.1070015560       -9.2187159942        7.4019958000
 N      -10.6630000000       -8.3203598737        4.9109958000
Al       -7.5510015560       -6.5236449376        9.3046216000
Al       -9.1070000000       -5.6252888171        6.8136216000
 N       -7.5510015560       -6.5236449376        7.4019958000
 N       -9.1070000000       -5.6252888171        4.9109958000
Al       -9.1070015560       -9.2187159942       14.2866216000
Al      -10.6630000000       -8.3203598737       11.7956216000
 N       -9.1070015560       -9.2187159942       12.3839958000
 N      -10.6630000000       -8.3203598737        9.8929958000
Al       -7.5510015560       -6.5236449376       14.2866216000
Al       -9.1070000000       -5.6252888171       11.7956216000
 N       -7.5510015560       -6.5236449376       12.3839958000
 N       -9.1070000000       -5.6252888171        9.8929958000
Al       -9.1070015560       -9.2187159942       19.2686216000
Al      -10.6630000000       -8.3203598737       16.7776216000
 N       -9.1070015560       -9.2187159942       17.3659958000
 N      -10.6630000000       -8.3203598737       14.8749958000
Al       -7.5510015560       -6.5236449376       19.2686216000
Al       -9.1070000000       -5.6252888171       16.7776216000
 N       -7.5510015560       -6.5236449376       17.3659958000
 N       -9.1070000000       -5.6252888171       14.8749958000
 N      -10.6630000000       -8.3203598737       19.8569958000
 N       -9.1070000000       -5.6252888171       19.8569958000
Al       -9.1070015560       -3.8285738810      -15.6053784000
Al      -10.6630000000       -2.9302177605      -18.0963784000
 N       -9.1070015560       -3.8285738810      -17.5080042000
 N      -10.6630000000       -2.9302177605      -19.9990042000
Al       -7.5510015560       -1.1335028245      -15.6053784000
Al       -9.1070000000       -0.2351467040      -18.0963784000
 N       -7.5510015560       -1.1335028245      -17.5080042000
 N       -9.1070000000       -0.2351467040      -19.9990042000
Al       -9.1070015560       -3.8285738810      -10.6233784000
Al      -10.6630000000       -2.9302177605      -13.1143784000
 N       -9.1070015560       -3.8285738810      -12.5260042000
 N      -10.6630000000       -2.9302177605      -15.0170042000
Al       -7.5510015560       -1.1335028245      -10.6233784000
Al       -9.1070000000       -0.2351467040      -13.1143784000
 N       -7.5510015560       -1.1335028245      -12.5260042000
 N       -9.1070000000       -0.2351467040      -15.0170042000
Al       -9.1070015560       -3.8285738810       -5.6413784000
Al      -10.6630000000       -2.9302177605       -8.1323784000
 N       -9.1070015560       -3.8285738810       -7.5440042000
 N      -10.6630000000       -2.9302177605      -10.0350042000
Ga       -7.5510015560       -1.1335028245       -5.6413784000
Al       -9.1070000000       -0.2351467040       -8.1323784000
 N       -7.5510015560       -1.1335028245       -7.5440042000
 N       -9.1070000000       -0.2351467040      -10.0350042000
Ga       -9.1070015560       -3.8285738810       -0.6593784000
Al      -10.6630000000       -2.9302177605       -3.1503784000
 N       -9.1070015560       -3.8285738810       -2.5620042000
 N      -10.6630000000       -2.9302177605       -5.0530042000
Ga       -7.5510015560       -1.1335028245       -0.6593784000
Ga       -9.1070000000       -0.2351467040       -3.1503784000
 N       -7.5510015560       -1.1335028245       -2.5620042000
 N       -9.1070000000       -0.2351467040       -5.0530042000
Al       -9.1070015560       -3.8285738810        4.3226216000
Al      -10.6630000000       -2.9302177605        1.8316216000
 N       -9.1070015560       -3.8285738810        2.4199958000
 N      -10.6630000000       -2.9302177605       -0.0710042000
Ga       -7.5510015560       -1.1335028245        4.3226216000
Ga       -9.1070000000       -0.2351467040        1.8316216000
 N       -7.5510015560       -1.1335028245        2.4199958000
 N       -9.1070000000       -0.2351467040       -0.0710042000
Al       -9.1070015560       -3.8285738810        9.3046216000
Al      -10.6630000000       -2.9302177605        6.8136216000
 N       -9.1070015560       -3.8285738810        7.4019958000
 N      -10.6630000000       -2.9302177605        4.9109958000
Al       -7.5510015560       -1.1335028245        9.3046216000
Al       -9.1070000000       -0.2351467040        6.8136216000
 N       -7.5510015560       -1.1335028245        7.4019958000
 N       -9.1070000000       -0.2351467040        4.9109958000
Al       -9.1070015560       -3.8285738810       14.2866216000
Al      -10.6630000000       -2.9302177605       11.7956216000
 N       -9.1070015560       -3.8285738810       12.3839958000
 N      -10.6630000000       -2.9302177605        9.8929958000
Al       -7.5510015560       -1.1335028245       14.2866216000
Al       -9.1070000000       -0.2351467040       11.7956216000
 N       -7.5510015560       -1.1335028245       12.3839958000
 N       -9.1070000000       -0.2351467040        9.8929958000
Al       -9.1070015560       -3.8285738810       19.2686216000
Al      -10.6630000000       -2.9302177605       16.7776216000
 N       -9.1070015560       -3.8285738810       17.3659958000
 N      -10.6630000000       -2.9302177605       14.8749958000
Al       -7.5510015560       -1.1335028245       19.2686216000
Al       -9.1070000000       -0.2351467040       16.7776216000
 N       -7.5510015560       -1.1335028245       17.3659958000
 N       -9.1070000000       -0.2351467040       14.8749958000
 N      -10.6630000000       -2.9302177605       19.8569958000
 N       -9.1070000000       -0.2351467040       19.8569958000
Al       -9.1070015560        1.5615682321      -15.6053784000
Al      -10.6630000000        2.4599243526      -18.0963784000
 N       -9.1070015560        1.5615682321      -17.5080042000
 N      -10.6630000000        2.4599243526      -19.9990042000
Al       -7.5510015560        4.2566392887      -15.6053784000
Al       -9.1070000000        5.1549954092      -18.0963784000
 N       -7.5510015560        4.2566392887      -17.5080042000
 N       -9.1070000000        5.1549954092      -19.9990042000
Al       -9.1070015560        1.5615682321      -10.6233784000
Al      -10.6630000000        2.4599243526      -13.1143784000
 N       -9.1070015560        1.5615682321      -12.5260042000
 N      -10.6630000000        2.4599243526      -15.0170042000
Al       -7.5510015560        4.2566392887      -10.6233784000
Al       -9.1070000000        5.1549954092      -13.1143784000
 N       -7.5510015560        4.2566392887      -12.5260042000
 N       -9.1070000000        5.1549954092      -15.0170042000
Al       -9.1070015560        1.5615682321       -5.6413784000
Al      -10.6630000000        2.4599243526       -8.1323784000
 N       -9.1070015560        1.5615682321       -7.5440042000
 N      -10.6630000000        2.4599243526      -10.0350042000
Al       -7.5510015560        4.2566392887       -5.6413784000
Al       -9.1070000000        5.1549954092       -8.1323784000
 N       -7.5510015560        4.2566392887       -7.5440042000
 N       -9.1070000000        5.1549954092      -10.0350042000
Ga       -9.1070015560        1.5615682321       -0.6593784000
Al      -10.6630000000        2.4599243526       -3.1503784000
 N       -9.1070015560        1.5615682321       -2.5620042000
 N      -10.6630000000        2.4599243526       -5.0530042000
Ga       -7.5510015560        4.2566392887       -0.6593784000
Al       -9.1070000000        5.1549954092       -3.1503784000
 N       -7.5510015560        4.2566392887       -2.5620042000
 N       -9.1070000000        5.1549954092       -5.0530042000
Al       -9.1070015560        1.5615682321        4.3226216000
Al      -10.6630000000        2.4599243526        1.8316216000
 N       -9.1070015560        1.5615682321        2.4199958000
 N      -10.6630000000        2.4599243526       -0.0710042000
Ga       -7.5510015560        4.2566392887        4.3226216000
Al       -9.1070000000        5.1549954092        1.8316216000
 N       -7.5510015560        4.2566392887        2.4199958000
 N       -9.1070000000        5.1549954092       -0.0710042000
Al       -9.1070015560        1.5615682321        9.3046216000
Al      -10.6630000000        2.4599243526        6.8136216000
 N       -9.1070015560        1.5615682321        7.4019958000
 N      -10.6630000000        2.4599243526        4.9109958000
Al       -7.5510015560        4.2566392887        9.3046216000
Al       -9.1070000000        5.1549954092        6.8136216000
 N       -7.5510015560        4.2566392887        7.4019958000
 N       -9.1070000000        5.1549954092        4.9109958000
Al       -9.1070015560        1.5615682321       14.2866216000
Al      -10.6630000000        2.4599243526       11.7956216000
 N       -9.1070015560        1.5615682321       12.3839958000
 N      -10.6630000000        2.4599243526        9.8929958000
Al       -7.5510015560        4.2566392887       14.2866216000
Al       -9.1070000000        5.1549954092       11.7956216000
 N       -7.5510015560        4.2566392887       12.3839958000
 N       -9.1070000000        5.1549954092        9.8929958000
Al       -9.1070015560        1.5615682321       19.2686216000
Al      -10.6630000000        2.4599243526       16.7776216000
 N       -9.1070015560        1.5615682321       17.3659958000
 N      -10.6630000000        2.4599243526       14.8749958000
Al       -7.5510015560        4.2566392887       19.2686216000
Al       -9.1070000000        5.1549954092       16.7776216000
 N       -7.5510015560        4.2566392887       17.3659958000
 N       -9.1070000000        5.1549954092       14.8749958000
 N      -10.6630000000        2.4599243526       19.8569958000
 N       -9.1070000000        5.1549954092       19.8569958000
Al       -9.1070015560        6.9517103453      -15.6053784000
Al      -10.6630000000        7.8500664658      -18.0963784000
 N       -9.1070015560        6.9517103453      -17.5080042000
 N      -10.6630000000        7.8500664658      -19.9990042000
Al       -7.5510015560        9.6467814018      -15.6053784000
Al       -9.1070000000       10.5451375223      -18.0963784000
 N       -7.5510015560        9.6467814018      -17.5080042000
 N       -9.1070000000       10.5451375223      -19.9990042000
Al       -9.1070015560        6.9517103453      -10.6233784000
Al      -10.6630000000        7.8500664658      -13.1143784000
 N       -9.1070015560        6.9517103453      -12.5260042000
 N      -10.6630000000        7.8500664658      -15.0170042000
Al       -7.5510015560        9.6467814018      -10.6233784000
Al       -9.1070000000       10.5451375223      -13.1143784000
 N       -7.5510015560        9.6467814018      -12.5260042000
 N       -9.1070000000       10.5451375223      -15.0170042000
Al       -9.1070015560        6.9517103453       -5.6413784000
Al      -10.6630000000        7.8500664658       -8.1323784000
 N       -9.1070015560        6.9517103453       -7.5440042000
 N      -10.6630000000        7.8500664658      -10.0350042000
Al       -7.5510015560        9.6467814018       -5.6413784000
Al       -9.1070000000       10.5451375223       -8.1323784000
 N       -7.5510015560        9.6467814018       -7.5440042000
 N       -9.1070000000       10.5451375223      -10.0350042000
Al       -9.1070015560        6.9517103453       -0.6593784000
Al      -10.6630000000        7.8500664658       -3.1503784000
 N       -9.1070015560        6.9517103453       -2.5620042000
 N      -10.6630000000        7.8500664658       -5.0530042000
Al       -7.5510015560        9.6467814018       -0.6593784000
Al       -9.1070000000       10.5451375223       -3.1503784000
 N       -7.5510015560        9.6467814018       -2.5620042000
 N       -9.1070000000       10.5451375223       -5.0530042000
Al       -9.1070015560        6.9517103453        4.3226216000
Al      -10.6630000000        7.8500664658        1.8316216000
 N       -9.1070015560        6.9517103453        2.4199958000
 N      -10.6630000000        7.8500664658       -0.0710042000
Al       -7.5510015560        9.6467814018        4.3226216000
Al       -9.1070000000       10.5451375223        1.8316216000
 N       -7.5510015560        9.6467814018        2.4199958000
 N       -9.1070000000       10.5451375223       -0.0710042000
Al       -9.1070015560        6.9517103453        9.3046216000
Al      -10.6630000000        7.8500664658        6.8136216000
 N       -9.1070015560        6.9517103453        7.4019958000
 N      -10.6630000000        7.8500664658        4.9109958000
Al       -7.5510015560        9.6467814018        9.3046216000
Al       -9.1070000000       10.5451375223        6.8136216000
 N       -7.5510015560        9.6467814018        7.4019958000
 N       -9.1070000000       10.5451375223        4.9109958000
Al       -9.1070015560        6.9517103453       14.2866216000
Al      -10.6630000000        7.8500664658       11.7956216000
 N       -9.1070015560        6.9517103453       12.3839958000
 N      -10.6630000000        7.8500664658        9.8929958000
Al       -7.5510015560        9.6467814018       14.2866216000
Al       -9.1070000000       10.5451375223       11.7956216000
 N       -7.5510015560        9.6467814018       12.3839958000
 N       -9.1070000000       10.5451375223        9.8929958000
Al       -9.1070015560        6.9517103453       19.2686216000
Al      -10.6630000000        7.8500664658       16.7776216000
 N       -9.1070015560        6.9517103453       17.3659958000
 N      -10.6630000000        7.8500664658       14.8749958000
Al       -7.5510015560        9.6467814018       19.2686216000
Al       -9.1070000000       10.5451375223       16.7776216000
 N       -7.5510015560        9.6467814018       17.3659958000
 N       -9.1070000000       10.5451375223       14.8749958000
 N      -10.6630000000        7.8500664658       19.8569958000
 N       -9.1070000000       10.5451375223       19.8569958000
Al       -9.1070015560       12.3418524584      -15.6053784000
Al      -10.6630000000       13.2402085789      -18.0963784000
 N       -9.1070015560       12.3418524584      -17.5080042000
 N      -10.6630000000       13.2402085789      -19.9990042000
Al       -7.5510015560       15.0369235150      -15.6053784000
Al       -9.1070000000       15.9352796355      -18.0963784000
 N       -7.5510015560       15.0369235150      -17.5080042000
 N       -9.1070000000       15.9352796355      -19.9990042000
Al       -9.1070015560       12.3418524584      -10.6233784000
Al      -10.6630000000       13.2402085789      -13.1143784000
 N       -9.1070015560       12.3418524584      -12.5260042000
 N      -10.6630000000       13.2402085789      -15.0170042000
Al       -7.5510015560       15.0369235150      -10.6233784000
Al       -9.1070000000       15.9352796355      -13.1143784000
 N       -7.5510015560       15.0369235150      -12.5260042000
 N       -9.1070000000       15.9352796355      -15.0170042000
Al       -9.1070015560       12.3418524584       -5.6413784000
Al      -10.6630000000       13.2402085789       -8.1323784000
 N       -9.1070015560       12.3418524584       -7.5440042000
 N      -10.6630000000       13.2402085789      -10.0350042000
Al       -7.5510015560       15.0369235150       -5.6413784000
Al       -9.1070000000       15.9352796355       -8.1323784000
 N       -7.5510015560       15.0369235150       -7.5440042000
 N       -9.1070000000       15.9352796355      -10.0350042000
Al       -9.1070015560       12.3418524584       -0.6593784000
Al      -10.6630000000       13.2402085789       -3.1503784000
 N       -9.1070015560       12.3418524584       -2.5620042000
 N      -10.6630000000       13.2402085789       -5.0530042000
Al       -7.5510015560       15.0369235150       -0.6593784000
Al       -9.1070000000       15.9352796355       -3.1503784000
 N       -7.5510015560       15.0369235150       -2.5620042000
 N       -9.1070000000       15.9352796355       -5.0530042000
Al       -9.1070015560       12.3418524584        4.3226216000
Al      -10.6630000000       13.2402085789        1.8316216000
 N       -9.1070015560       12.3418524584        2.4199958000
 N      -10.6630000000       13.2402085789       -0.0710042000
Al       -7.5510015560       15.0369235150        4.3226216000
Al       -9.1070000000       15.9352796355        1.8316216000
 N       -7.5510015560       15.0369235150        2.4199958000
 N       -9.1070000000       15.9352796355       -0.0710042000
Al       -9.1070015560       12.3418524584        9.3046216000
Al      -10.6630000000       13.2402085789        6.8136216000
 N       -9.1070015560       12.3418524584        7.4019958000
 N      -10.6630000000       13.2402085789        4.9109958000
Al       -7.5510015560       15.0369235150        9.3046216000
Al       -9.1070000000       15.9352796355        6.8136216000
 N       -7.5510015560       15.0369235150        7.4019958000
 N       -9.1070000000       15.9352796355        4.9109958000
Al       -9.1070015560       12.3418524584       14.2866216000
Al      -10.6630000000       13.2402085789       11.7956216000
 N       -9.1070015560       12.3418524584       12.3839958000
 N      -10.6630000000       13.2402085789        9.8929958000
Al       -7.5510015560       15.0369235150       14.2866216000
Al       -9.1070000000       15.9352796355       11.7956216000
 N       -7.5510015560       15.0369235150       12.3839958000
 N       -9.1070000000       15.9352796355        9.8929958000
Al       -9.1070015560       12.3418524584       19.2686216000
Al      -10.6630000000       13.2402085789       16.7776216000
 N       -9.1070015560       12.3418524584       17.3659958000
 N      -10.6630000000       13.2402085789       14.8749958000
Al       -7.5510015560       15.0369235150       19.2686216000
Al       -9.1070000000       15.9352796355       16.7776216000
 N       -7.5510015560       15.0369235150       17.3659958000
 N       -9.1070000000       15.9352796355       14.8749958000
 N      -10.6630000000       13.2402085789       19.8569958000
 N       -9.1070000000       15.9352796355       19.8569958000
Al       -9.1070015560       17.7319945716      -15.6053784000
Al      -10.6630000000       18.6303506921      -18.0963784000
 N       -9.1070015560       17.7319945716      -17.5080042000
 N      -10.6630000000       18.6303506921      -19.9990042000
Al       -9.1070015560       17.7319945716      -10.6233784000
Al      -10.6630000000       18.6303506921      -13.1143784000
 N       -9.1070015560       17.7319945716      -12.5260042000
 N      -10.6630000000       18.6303506921      -15.0170042000
Al       -9.1070015560       17.7319945716       -5.6413784000
Al      -10.6630000000       18.6303506921       -8.1323784000
 N       -9.1070015560       17.7319945716       -7.5440042000
 N      -10.6630000000       18.6303506921      -10.0350042000
Al       -9.1070015560       17.7319945716       -0.6593784000
Al      -10.6630000000       18.6303506921       -3.1503784000
 N       -9.1070015560       17.7319945716       -2.5620042000
 N      -10.6630000000       18.6303506921       -5.0530042000
Al       -9.1070015560       17.7319945716        4.3226216000
Al      -10.6630000000       18.6303506921        1.8316216000
 N       -9.1070015560       17.7319945716        2.4199958000
 N      -10.6630000000       18.6303506921       -0.0710042000
Al       -9.1070015560       17.7319945716        9.3046216000
Al      -10.6630000000       18.6303506921        6.8136216000
 N       -9.1070015560       17.7319945716        7.4019958000
 N      -10.6630000000       18.6303506921        4.9109958000
Al       -9.1070015560       17.7319945716       14.2866216000
Al      -10.6630000000       18.6303506921       11.7956216000
 N       -9.1070015560       17.7319945716       12.3839958000
 N      -10.6630000000       18.6303506921        9.8929958000
Al       -9.1070015560       17.7319945716       19.2686216000
Al      -10.6630000000       18.6303506921       16.7776216000
 N       -9.1070015560       17.7319945716       17.3659958000
 N      -10.6630000000       18.6303506921       14.8749958000
 N      -10.6630000000       18.6303506921       19.8569958000
Al       -5.9950015560      -19.9990002205      -15.6053784000
Al       -7.5510000000      -19.1006441000      -18.0963784000
 N       -5.9950015560      -19.9990002205      -17.5080042000
 N       -7.5510000000      -19.1006441000      -19.9990042000
Al       -4.4390015560      -17.3039291639      -15.6053784000
Al       -5.9950000000      -16.4055730434      -18.0963784000
 N       -4.4390015560      -17.3039291639      -17.5080042000
 N       -5.9950000000      -16.4055730434      -19.9990042000
Al       -5.9950015560      -19.9990002205      -10.6233784000
Al       -7.5510000000      -19.1006441000      -13.1143784000
 N       -5.9950015560      -19.9990002205      -12.5260042000
 N       -7.5510000000      -19.1006441000      -15.0170042000
Al       -4.4390015560      -17.3039291639      -10.6233784000
Al       -5.9950000000      -16.4055730434      -13.1143784000
 N       -4.4390015560      -17.3039291639      -12.5260042000
 N       -5.9950000000      -16.4055730434      -15.0170042000
Al       -5.9950015560      -19.9990002205       -5.6413784000
Al       -7.5510000000      -19.1006441000       -8.1323784000
 N       -5.9950015560      -19.9990002205       -7.5440042000
 N       -7.5510000000      -19.1006441000      -10.0350042000
Al       -4.4390015560      -17.3039291639       -5.6413784000
Al       -5.9950000000      -16.4055730434       -8.1323784000
 N       -4.4390015560      -17.3039291639       -7.5440042000
 N       -5.9950000000      -16.4055730434      -10.0350042000
Al       -5.9950015560      -19.9990002205       -0.6593784000
Al       -7.5510000000      -19.1006441000       -3.1503784000
 N       -5.9950015560      -19.9990002205       -2.5620042000
 N       -7.5510000000      -19.1006441000       -5.0530042000
Al       -4.4390015560      -17.3039291639       -0.6593784000
Al       -5.9950000000      -16.4055730434       -3.1503784000
 N       -4.4390015560      -17.3039291639       -2.5620042000
 N       -5.9950000000      -16.4055730434       -5.0530042000
Al       -5.9950015560      -19.9990002205        4.3226216000
Al       -7.5510000000      -19.1006441000        1.8316216000
 N       -5.9950015560      -19.9990002205        2.4199958000
 N       -7.5510000000      -19.1006441000       -0.0710042000
Al       -4.4390015560      -17.3039291639        4.3226216000
Al       -5.9950000000      -16.4055730434        1.8316216000
 N       -4.4390015560      -17.3039291639        2.4199958000
 N       -5.9950000000      -16.4055730434       -0.0710042000
Al       -5.9950015560      -19.9990002205        9.3046216000
Al       -7.5510000000      -19.1006441000        6.8136216000
 N       -5.9950015560      -19.9990002205        7.4019958000
 N       -7.5510000000      -19.1006441000        4.9109958000
Al       -4.4390015560      -17.3039291639        9.3046216000
Al       -5.9950000000      -16.4055730434        6.8136216000
 N       -4.4390015560      -17.3039291639        7.4019958000
 N       -5.9950000000      -16.4055730434        4.9109958000
Al       -5.9950015560      -19.9990002205       14.2866216000
Al       -7.5510000000      -19.1006441000       11.7956216000
 N       -5.9950015560      -19.9990002205       12.3839958000
 N       -7.5510000000      -19.1006441000        9.8929958000
Al       -4.4390015560      -17.3039291639       14.2866216000
Al       -5.9950000000      -16.4055730434       11.7956216000
 N       -4.4390015560      -17.3039291639       12.3839958000
 N       -5.9950000000      -16.4055730434        9.8929958000
Al       -5.9950015560      -19.9990002205       19.2686216000
Al       -7.5510000000      -19.1006441000       16.7776216000
 N       -5.9950015560      -19.9990002205       17.3659958000
 N       -7.5510000000      -19.1006441000       14.8749958000
Al       -4.4390015560      -17.3039291639       19.2686216000
Al       -5.9950000000      -16.4055730434       16.7776216000
 N       -4.4390015560      -17.3039291639       17.3659958000
 N       -5.9950000000      -16.4055730434       14.8749958000
 N       -7.5510000000      -19.1006441000       19.8569958000
 N       -5.9950000000      -16.4055730434       19.8569958000
Al       -5.9950015560      -14.6088581073      -15.6053784000
Al       -7.5510000000      -13.7105019868      -18.0963784000
 N       -5.9950015560      -14.6088581073      -17.5080042000
 N       -7.5510000000      -13.7105019868      -19.9990042000
Al       -4.4390015560      -11.9137870508      -15.6053784000
Al       -5.9950000000      -11.0154309303      -18.0963784000
 N       -4.4390015560      -11.9137870508      -17.5080042000
 N       -5.9950000000      -11.0154309303      -19.9990042000
Al       -5.9950015560      -14.6088581073      -10.6233784000
Al       -7.5510000000      -13.7105019868      -13.1143784000
 N       -5.9950015560      -14.6088581073      -12.5260042000
 N       -7.5510000000      -13.7105019868      -15.0170042000
Al       -4.4390015560      -11.9137870508      -10.6233784000
Al       -5.9950000000      -11.0154309303      -13.1143784000
 N       -4.4390015560      -11.9137870508      -12.5260042000
 N       -5.9950000000      -11.0154309303      -15.0170042000
Al       -5.9950015560      -14.6088581073       -5.6413784000
Al       -7.5510000000      -13.7105019868       -8.1323784000
 N       -5.9950015560      -14.6088581073       -7.5440042000
 N       -7.5510000000      -13.7105019868      -10.0350042000
Al       -4.4390015560      -11.9137870508       -5.6413784000
Al       -5.9950000000      -11.0154309303       -8.1323784000
 N       -4.4390015560      -11.9137870508       -7.5440042000
 N       -5.9950000000      -11.0154309303      -10.0350042000
Al       -5.9950015560      -14.6088581073       -0.6593784000
Al       -7.5510000000      -13.7105019868       -3.1503784000
 N       -5.9950015560      -14.6088581073       -2.5620042000
 N       -7.5510000000      -13.7105019868       -5.0530042000
Al       -4.4390015560      -11.9137870508       -0.6593784000
Al       -5.9950000000      -11.0154309303       -3.1503784000
 N       -4.4390015560      -11.9137870508       -2.5620042000
 N       -5.9950000000      -11.0154309303       -5.0530042000
Al       -5.9950015560      -14.6088581073        4.3226216000
Al       -7.5510000000      -13.7105019868        1.8316216000
 N       -5.9950015560      -14.6088581073        2.4199958000
 N       -7.5510000000      -13.7105019868       -0.0710042000
Al       -4.4390015560      -11.9137870508        4.3226216000
Al       -5.9950000000      -11.0154309303        1.8316216000
 N       -4.4390015560      -11.9137870508        2.4199958000
 N       -5.9950000000      -11.0154309303       -0.0710042000
Al       -5.9950015560      -14.6088581073        9.3046216000
Al       -7.5510000000      -13.7105019868        6.8136216000
 N       -5.9950015560      -14.6088581073        7.4019958000
 N       -7.5510000000      -13.7105019868        4.9109958000
Al       -4.4390015560      -11.9137870508        9.3046216000
Al       -5.9950000000      -11.0154309303        6.8136216000
 N       -4.4390015560      -11.9137870508        7.4019958000
 N       -5.9950000000      -11.0154309303        4.9109958000
Al       -5.9950015560      -14.6088581073       14.2866216000
Al       -7.5510000000      -13.7105019868       11.7956216000
 N       -5.9950015560      -14.6088581073       12.3839958000
 N       -7.5510000000      -13.7105019868        9.8929958000
Al       -4.4390015560      -11.9137870508       14.2866216000
Al       -5.9950000000      -11.0154309303       11.7956216000
 N       -4.4390015560      -11.9137870508       12.3839958000
 N       -5.9950000000      -11.0154309303        9.8929958000
Al       -5.9950015560      -14.6088581073       19.2686216000
Al       -7.5510000000      -13.7105019868       16.7776216000
 N       -5.9950015560      -14.6088581073       17.3659958000
 N       -7.5510000000      -13.7105019868       14.8749958000
Al       -4.4390015560      -11.9137870508       19.2686216000
Al       -5.9950000000      -11.0154309303       16.7776216000
 N       -4.4390015560      -11.9137870508       17.3659958000
 N       -5.9950000000      -11.0154309303       14.8749958000
 N       -7.5510000000      -13.7105019868       19.8569958000
 N       -5.9950000000      -11.0154309303       19.8569958000
Al       -5.9950015560       -9.2187159942      -15.6053784000
Al       -7.5510000000       -8.3203598737      -18.0963784000
 N       -5.9950015560       -9.2187159942      -17.5080042000
 N       -7.5510000000       -8.3203598737      -19.9990042000
Al       -4.4390015560       -6.5236449376      -15.6053784000
Al       -5.9950000000       -5.6252888171      -18.0963784000
 N       -4.4390015560       -6.5236449376      -17.5080042000
 N       -5.9950000000       -5.6252888171      -19.9990042000
Al       -5.9950015560       -9.2187159942      -10.6233784000
Al       -7.5510000000       -8.3203598737      -13.1143784000
 N       -5.9950015560       -9.2187159942      -12.5260042000
 N       -7.5510000000       -8.3203598737      -15.0170042000
Al       -4.4390015560       -6.5236449376      -10.6233784000
Al       -5.9950000000       -5.6252888171      -13.1143784000
 N       -4.4390015560       -6.5236449376      -12.5260042000
 N       -5.9950000000       -5.6252888171      -15.0170042000
Al       -5.9950015560       -9.2187159942       -5.6413784000
Al       -7.5510000000       -8.3203598737       -8.1323784000
 N       -5.9950015560       -9.2187159942       -7.5440042000
 N       -7.5510000000       -8.3203598737      -10.0350042000
Ga       -4.4390015560       -6.5236449376       -5.6413784000
Al       -5.9950000000       -5.6252888171       -8.1323784000
 N       -4.4390015560       -6.5236449376       -7.5440042000
 N       -5.9950000000       -5.6252888171      -10.0350042000
Al       -5.9950015560       -9.2187159942       -0.6593784000
Al       -7.5510000000       -8.3203598737       -3.1503784000
 N       -5.9950015560       -9.2187159942       -2.5620042000
 N       -7.5510000000       -8.3203598737       -5.0530042000
Ga       -4.4390015560       -6.5236449376       -0.6593784000
Ga       -5.9950000000       -5.6252888171       -3.1503784000
 N       -4.4390015560       -6.5236449376       -2.5620042000
 N       -5.9950000000       -5.6252888171       -5.0530042000
Al       -5.9950015560       -9.2187159942        4.3226216000
Al       -7.5510000000       -8.3203598737        1.8316216000
 N       -5.9950015560       -9.2187159942        2.4199958000
 N       -7.5510000000       -8.3203598737       -0.0710042000
Ga       -4.4390015560       -6.5236449376        4.3226216000
Ga       -5.9950000000       -5.6252888171        1.8316216000
 N       -4.4390015560       -6.5236449376        2.4199958000
 N       -5.9950000000       -5.6252888171       -0.0710042000
Al       -5.9950015560       -9.2187159942        9.3046216000
Al       -7.5510000000       -8.3203598737        6.8136216000
 N       -5.9950015560       -9.2187159942        7.4019958000
 N       -7.5510000000       -8.3203598737        4.9109958000
Al       -4.4390015560       -6.5236449376        9.3046216000
Al       -5.9950000000       -5.6252888171        6.8136216000
 N       -4.4390015560       -6.5236449376        7.4019958000
 N       -5.9950000000       -5.6252888171        4.9109958000
Al       -5.9950015560       -9.2187159942       14.2866216000
Al       -7.5510000000       -8.3203598737       11.7956216000
 N       -5.9950015560       -9.2187159942       12.3839958000
 N       -7.5510000000       -8.3203598737        9.8929958000
Al       -4.4390015560       -6.5236449376       14.2866216000
Al       -5.9950000000       -5.6252888171       11.7956216000
 N       -4.4390015560       -6.5236449376       12.3839958000
 N       -5.9950000000       -5.6252888171        9.8929958000
Al       -5.9950015560       -9.2187159942       19.2686216000
Al       -7.5510000000       -8.3203598737       16.7776216000
 N       -5.9950015560       -9.2187159942       17.3659958000
 N       -7.5510000000       -8.3203598737       14.8749958000
Al       -4.4390015560       -6.5236449376       19.2686216000
Al       -5.9950000000       -5.6252888171       16.7776216000
 N       -4.4390015560       -6.5236449376       17.3659958000
 N       -5.9950000000       -5.6252888171       14.8749958000
 N       -7.5510000000       -8.3203598737       19.8569958000
 N       -5.9950000000       -5.6252888171       19.8569958000
Al       -5.9950015560       -3.8285738810      -15.6053784000
Al       -7.5510000000       -2.9302177605      -18.0963784000
 N       -5.9950015560       -3.8285738810      -17.5080042000
 N       -7.5510000000       -2.9302177605      -19.9990042000
Al       -4.4390015560       -1.1335028245      -15.6053784000
Al       -5.9950000000       -0.2351467040      -18.0963784000
 N       -4.4390015560       -1.1335028245      -17.5080042000
 N       -5.9950000000       -0.2351467040      -19.9990042000
Al       -5.9950015560       -3.8285738810      -10.6233784000
Al       -7.5510000000       -2.9302177605      -13.1143784000
 N       -5.9950015560       -3.8285738810      -12.5260042000
 N       -7.5510000000       -2.9302177605      -15.0170042000
Al       -4.4390015560       -1.1335028245      -10.6233784000
Al       -5.9950000000       -0.2351467040      -13.1143784000
 N       -4.4390015560       -1.1335028245      -12.5260042000
 N       -5.9950000000       -0.2351467040      -15.0170042000
Ga       -5.9950015560       -3.8285738810       -5.6413784000
Al       -7.5510000000       -2.9302177605       -8.1323784000
 N       -5.9950015560       -3.8285738810       -7.5440042000
 N       -7.5510000000       -2.9302177605      -10.0350042000
Ga       -4.4390015560       -1.1335028245       -5.6413784000
Al       -5.9950000000       -0.2351467040       -8.1323784000
 N       -4.4390015560       -1.1335028245       -7.5440042000
 N       -5.9950000000       -0.2351467040      -10.0350042000
Ga       -5.9950015560       -3.8285738810       -0.6593784000
Ga       -7.5510000000       -2.9302177605       -3.1503784000
 N       -5.9950015560       -3.8285738810       -2.5620042000
 N       -7.5510000000       -2.9302177605       -5.0530042000
Ga       -4.4390015560       -1.1335028245       -0.6593784000
Ga       -5.9950000000       -0.2351467040       -3.1503784000
 N       -4.4390015560       -1.1335028245       -2.5620042000
 N       -5.9950000000       -0.2351467040       -5.0530042000
Ga       -5.9950015560       -3.8285738810        4.3226216000
Ga       -7.5510000000       -2.9302177605        1.8316216000
 N       -5.9950015560       -3.8285738810        2.4199958000
 N       -7.5510000000       -2.9302177605       -0.0710042000
Ga       -4.4390015560       -1.1335028245        4.3226216000
Ga       -5.9950000000       -0.2351467040        1.8316216000
 N       -4.4390015560       -1.1335028245        2.4199958000
 N       -5.9950000000       -0.2351467040       -0.0710042000
Al       -5.9950015560       -3.8285738810        9.3046216000
Al       -7.5510000000       -2.9302177605        6.8136216000
 N       -5.9950015560       -3.8285738810        7.4019958000
 N       -7.5510000000       -2.9302177605        4.9109958000
Al       -4.4390015560       -1.1335028245        9.3046216000
Ga       -5.9950000000       -0.2351467040        6.8136216000
 N       -4.4390015560       -1.1335028245        7.4019958000
 N       -5.9950000000       -0.2351467040        4.9109958000
Al       -5.9950015560       -3.8285738810       14.2866216000
Al       -7.5510000000       -2.9302177605       11.7956216000
 N       -5.9950015560       -3.8285738810       12.3839958000
 N       -7.5510000000       -2.9302177605        9.8929958000
Al       -4.4390015560       -1.1335028245       14.2866216000
Al       -5.9950000000       -0.2351467040       11.7956216000
 N       -4.4390015560       -1.1335028245       12.3839958000
 N       -5.9950000000       -0.2351467040        9.8929958000
Al       -5.9950015560       -3.8285738810       19.2686216000
Al       -7.5510000000       -2.9302177605       16.7776216000
 N       -5.9950015560       -3.8285738810       17.3659958000
 N       -7.5510000000       -2.9302177605       14.8749958000
Al       -4.4390015560       -1.1335028245       19.2686216000
Al       -5.9950000000       -0.2351467040       16.7776216000
 N       -4.4390015560       -1.1335028245       17.3659958000
 N       -5.9950000000       -0.2351467040       14.8749958000
 N       -7.5510000000       -2.9302177605       19.8569958000
 N       -5.9950000000       -0.2351467040       19.8569958000
Al       -5.9950015560        1.5615682321      -15.6053784000
Al       -7.5510000000        2.4599243526      -18.0963784000
 N       -5.9950015560        1.5615682321      -17.5080042000
 N       -7.5510000000        2.4599243526      -19.9990042000
Al       -4.4390015560        4.2566392887      -15.6053784000
Al       -5.9950000000        5.1549954092      -18.0963784000
 N       -4.4390015560        4.2566392887      -17.5080042000
 N       -5.9950000000        5.1549954092      -19.9990042000
Al       -5.9950015560        1.5615682321      -10.6233784000
Al       -7.5510000000        2.4599243526      -13.1143784000
 N       -5.9950015560        1.5615682321      -12.5260042000
 N       -7.5510000000        2.4599243526      -15.0170042000
Al       -4.4390015560        4.2566392887      -10.6233784000
Al       -5.9950000000        5.1549954092      -13.1143784000
 N       -4.4390015560        4.2566392887      -12.5260042000
 N       -5.9950000000        5.1549954092      -15.0170042000
Ga       -5.9950015560        1.5615682321       -5.6413784000
Al       -7.5510000000        2.4599243526       -8.1323784000
 N       -5.9950015560        1.5615682321       -7.5440042000
 N       -7.5510000000        2.4599243526      -10.0350042000
Ga       -4.4390015560        4.2566392887       -5.6413784000
Al       -5.9950000000        5.1549954092       -8.1323784000
 N       -4.4390015560        4.2566392887       -7.5440042000
 N       -5.9950000000        5.1549954092      -10.0350042000
Ga       -5.9950015560        1.5615682321       -0.6593784000
Ga       -7.5510000000        2.4599243526       -3.1503784000
 N       -5.9950015560        1.5615682321       -2.5620042000
 N       -7.5510000000        2.4599243526       -5.0530042000
Ga       -4.4390015560        4.2566392887       -0.6593784000
Ga       -5.9950000000        5.1549954092       -3.1503784000
 N       -4.4390015560        4.2566392887       -2.5620042000
 N       -5.9950000000        5.1549954092       -5.0530042000
Ga       -5.9950015560        1.5615682321        4.3226216000
Ga       -7.5510000000        2.4599243526        1.8316216000
 N       -5.9950015560        1.5615682321        2.4199958000
 N       -7.5510000000        2.4599243526       -0.0710042000
Ga       -4.4390015560        4.2566392887        4.3226216000
Ga       -5.9950000000        5.1549954092        1.8316216000
 N       -4.4390015560        4.2566392887        2.4199958000
 N       -5.9950000000        5.1549954092       -0.0710042000
Al       -5.9950015560        1.5615682321        9.3046216000
Al       -7.5510000000        2.4599243526        6.8136216000
 N       -5.9950015560        1.5615682321        7.4019958000
 N       -7.5510000000        2.4599243526        4.9109958000
Al       -4.4390015560        4.2566392887        9.3046216000
Al       -5.9950000000        5.1549954092        6.8136216000
 N       -4.4390015560        4.2566392887        7.4019958000
 N       -5.9950000000        5.1549954092        4.9109958000
Al       -5.9950015560        1.5615682321       14.2866216000
Al       -7.5510000000        2.4599243526       11.7956216000
 N       -5.9950015560        1.5615682321       12.3839958000
 N       -7.5510000000        2.4599243526        9.8929958000
Al       -4.4390015560        4.2566392887       14.2866216000
Al       -5.9950000000        5.1549954092       11.7956216000
 N       -4.4390015560        4.2566392887       12.3839958000
 N       -5.9950000000        5.1549954092        9.8929958000
Al       -5.9950015560        1.5615682321       19.2686216000
Al       -7.5510000000        2.4599243526       16.7776216000
 N       -5.9950015560        1.5615682321       17.3659958000
 N       -7.5510000000        2.4599243526       14.8749958000
Al       -4.4390015560        4.2566392887       19.2686216000
Al       -5.9950000000        5.1549954092       16.7776216000
 N       -4.4390015560        4.2566392887       17.3659958000
 N       -5.9950000000        5.1549954092       14.8749958000
 N       -7.5510000000        2.4599243526       19.8569958000
 N       -5.9950000000        5.1549954092       19.8569958000
Al       -5.9950015560        6.9517103453      -15.6053784000
Al       -7.5510000000        7.8500664658      -18.0963784000
 N       -5.9950015560        6.9517103453      -17.5080042000
 N       -7.5510000000        7.8500664658      -19.9990042000
Al       -4.4390015560        9.6467814018      -15.6053784000
Al       -5.9950000000       10.5451375223      -18.0963784000
 N       -4.4390015560        9.6467814018      -17.5080042000
 N       -5.9950000000       10.5451375223      -19.9990042000
Al       -5.9950015560        6.9517103453      -10.6233784000
Al       -7.5510000000        7.8500664658      -13.1143784000
 N       -5.9950015560        6.9517103453      -12.5260042000
 N       -7.5510000000        7.8500664658      -15.0170042000
Al       -4.4390015560        9.6467814018      -10.6233784000
Al       -5.9950000000       10.5451375223      -13.1143784000
 N       -4.4390015560        9.6467814018      -12.5260042000
 N       -5.9950000000       10.5451375223      -15.0170042000
Al       -5.9950015560        6.9517103453       -5.6413784000
Al       -7.5510000000        7.8500664658       -8.1323784000
 N       -5.9950015560        6.9517103453       -7.5440042000
 N       -7.5510000000        7.8500664658      -10.0350042000
Al       -4.4390015560        9.6467814018       -5.6413784000
Al       -5.9950000000       10.5451375223       -8.1323784000
 N       -4.4390015560        9.6467814018       -7.5440042000
 N       -5.9950000000       10.5451375223      -10.0350042000
Ga       -5.9950015560        6.9517103453       -0.6593784000
Al       -7.5510000000        7.8500664658       -3.1503784000
 N       -5.9950015560        6.9517103453       -2.5620042000
 N       -7.5510000000        7.8500664658       -5.0530042000
Al       -4.4390015560        9.6467814018       -0.6593784000
Al       -5.9950000000       10.5451375223       -3.1503784000
 N       -4.4390015560        9.6467814018       -2.5620042000
 N       -5.9950000000       10.5451375223       -5.0530042000
Al       -5.9950015560        6.9517103453        4.3226216000
Al       -7.5510000000        7.8500664658        1.8316216000
 N       -5.9950015560        6.9517103453        2.4199958000
 N       -7.5510000000        7.8500664658       -0.0710042000
Al       -4.4390015560        9.6467814018        4.3226216000
Al       -5.9950000000       10.5451375223        1.8316216000
 N       -4.4390015560        9.6467814018        2.4199958000
 N       -5.9950000000       10.5451375223       -0.0710042000
Al       -5.9950015560        6.9517103453        9.3046216000
Al       -7.5510000000        7.8500664658        6.8136216000
 N       -5.9950015560        6.9517103453        7.4019958000
 N       -7.5510000000        7.8500664658        4.9109958000
Al       -4.4390015560        9.6467814018        9.3046216000
Al       -5.9950000000       10.5451375223        6.8136216000
 N       -4.4390015560        9.6467814018        7.4019958000
 N       -5.9950000000       10.5451375223        4.9109958000
Al       -5.9950015560        6.9517103453       14.2866216000
Al       -7.5510000000        7.8500664658       11.7956216000
 N       -5.9950015560        6.9517103453       12.3839958000
 N       -7.5510000000        7.8500664658        9.8929958000
Al       -4.4390015560        9.6467814018       14.2866216000
Al       -5.9950000000       10.5451375223       11.7956216000
 N       -4.4390015560        9.6467814018       12.3839958000
 N       -5.9950000000       10.5451375223        9.8929958000
Al       -5.9950015560        6.9517103453       19.2686216000
Al       -7.5510000000        7.8500664658       16.7776216000
 N       -5.9950015560        6.9517103453       17.3659958000
 N       -7.5510000000        7.8500664658       14.8749958000
Al       -4.4390015560        9.6467814018       19.2686216000
Al       -5.9950000000       10.5451375223       16.7776216000
 N       -4.4390015560        9.6467814018       17.3659958000
 N       -5.9950000000       10.5451375223       14.8749958000
 N       -7.5510000000        7.8500664658       19.8569958000
 N       -5.9950000000       10.5451375223       19.8569958000
Al       -5.9950015560       12.3418524584      -15.6053784000
Al       -7.5510000000       13.2402085789      -18.0963784000
 N       -5.9950015560       12.3418524584      -17.5080042000
 N       -7.5510000000       13.2402085789      -19.9990042000
Al       -4.4390015560       15.0369235150      -15.6053784000
Al       -5.9950000000       15.9352796355      -18.0963784000
 N       -4.4390015560       15.0369235150      -17.5080042000
 N       -5.9950000000       15.9352796355      -19.9990042000
Al       -5.9950015560       12.3418524584      -10.6233784000
Al       -7.5510000000       13.2402085789      -13.1143784000
 N       -5.9950015560       12.3418524584      -12.5260042000
 N       -7.5510000000       13.2402085789      -15.0170042000
Al       -4.4390015560       15.0369235150      -10.6233784000
Al       -5.9950000000       15.9352796355      -13.1143784000
 N       -4.4390015560       15.0369235150      -12.5260042000
 N       -5.9950000000       15.9352796355      -15.0170042000
Al       -5.9950015560       12.3418524584       -5.6413784000
Al       -7.5510000000       13.2402085789       -8.1323784000
 N       -5.9950015560       12.3418524584       -7.5440042000
 N       -7.5510000000       13.2402085789      -10.0350042000
Al       -4.4390015560       15.0369235150       -5.6413784000
Al       -5.9950000000       15.9352796355       -8.1323784000
 N       -4.4390015560       15.0369235150       -7.5440042000
 N       -5.9950000000       15.9352796355      -10.0350042000
Al       -5.9950015560       12.3418524584       -0.6593784000
Al       -7.5510000000       13.2402085789       -3.1503784000
 N       -5.9950015560       12.3418524584       -2.5620042000
 N       -7.5510000000       13.2402085789       -5.0530042000
Al       -4.4390015560       15.0369235150       -0.6593784000
Al       -5.9950000000       15.9352796355       -3.1503784000
 N       -4.4390015560       15.0369235150       -2.5620042000
 N       -5.9950000000       15.9352796355       -5.0530042000
Al       -5.9950015560       12.3418524584        4.3226216000
Al       -7.5510000000       13.2402085789        1.8316216000
 N       -5.9950015560       12.3418524584        2.4199958000
 N       -7.5510000000       13.2402085789       -0.0710042000
Al       -4.4390015560       15.0369235150        4.3226216000
Al       -5.9950000000       15.9352796355        1.8316216000
 N       -4.4390015560       15.0369235150        2.4199958000
 N       -5.9950000000       15.9352796355       -0.0710042000
Al       -5.9950015560       12.3418524584        9.3046216000
Al       -7.5510000000       13.2402085789        6.8136216000
 N       -5.9950015560       12.3418524584        7.4019958000
 N       -7.5510000000       13.2402085789        4.9109958000
Al       -4.4390015560       15.0369235150        9.3046216000
Al       -5.9950000000       15.9352796355        6.8136216000
 N       -4.4390015560       15.0369235150        7.4019958000
 N       -5.9950000000       15.9352796355        4.9109958000
Al       -5.9950015560       12.3418524584       14.2866216000
Al       -7.5510000000       13.2402085789       11.7956216000
 N       -5.9950015560       12.3418524584       12.3839958000
 N       -7.5510000000       13.2402085789        9.8929958000
Al       -4.4390015560       15.0369235150       14.2866216000
Al       -5.9950000000       15.9352796355       11.7956216000
 N       -4.4390015560       15.0369235150       12.3839958000
 N       -5.9950000000       15.9352796355        9.8929958000
Al       -5.9950015560       12.3418524584       19.2686216000
Al       -7.5510000000       13.2402085789       16.7776216000
 N       -5.9950015560       12.3418524584       17.3659958000
 N       -7.5510000000       13.2402085789       14.8749958000
Al       -4.4390015560       15.0369235150       19.2686216000
Al       -5.9950000000       15.9352796355       16.7776216000
 N       -4.4390015560       15.0369235150       17.3659958000
 N       -5.9950000000       15.9352796355       14.8749958000
 N       -7.5510000000       13.2402085789       19.8569958000
 N       -5.9950000000       15.9352796355       19.8569958000
Al       -5.9950015560       17.7319945716      -15.6053784000
Al       -7.5510000000       18.6303506921      -18.0963784000
 N       -5.9950015560       17.7319945716      -17.5080042000
 N       -7.5510000000       18.6303506921      -19.9990042000
Al       -5.9950015560       17.7319945716      -10.6233784000
Al       -7.5510000000       18.6303506921      -13.1143784000
 N       -5.9950015560       17.7319945716      -12.5260042000
 N       -7.5510000000       18.6303506921      -15.0170042000
Al       -5.9950015560       17.7319945716       -5.6413784000
Al       -7.5510000000       18.6303506921       -8.1323784000
 N       -5.9950015560       17.7319945716       -7.5440042000
 N       -7.5510000000       18.6303506921      -10.0350042000
Al       -5.9950015560       17.7319945716       -0.6593784000
Al       -7.5510000000       18.6303506921       -3.1503784000
 N       -5.9950015560       17.7319945716       -2.5620042000
 N       -7.5510000000       18.6303506921       -5.0530042000
Al       -5.9950015560       17.7319945716        4.3226216000
Al       -7.5510000000       18.6303506921        1.8316216000
 N       -5.9950015560       17.7319945716        2.4199958000
 N       -7.5510000000       18.6303506921       -0.0710042000
Al       -5.9950015560       17.7319945716        9.3046216000
Al       -7.5510000000       18.6303506921        6.8136216000
 N       -5.9950015560       17.7319945716        7.4019958000
 N       -7.5510000000       18.6303506921        4.9109958000
Al       -5.9950015560       17.7319945716       14.2866216000
Al       -7.5510000000       18.6303506921       11.7956216000
 N       -5.9950015560       17.7319945716       12.3839958000
 N       -7.5510000000       18.6303506921        9.8929958000
Al       -5.9950015560       17.7319945716       19.2686216000
Al       -7.5510000000       18.6303506921       16.7776216000
 N       -5.9950015560       17.7319945716       17.3659958000
 N       -7.5510000000       18.6303506921       14.8749958000
 N       -7.5510000000       18.6303506921       19.8569958000
Al       -2.8830015560      -19.9990002205      -15.6053784000
Al       -4.4390000000      -19.1006441000      -18.0963784000
 N       -2.8830015560      -19.9990002205      -17.5080042000
 N       -4.4390000000      -19.1006441000      -19.9990042000
Al       -1.3270015560      -17.3039291639      -15.6053784000
Al       -2.8830000000      -16.4055730434      -18.0963784000
 N       -1.3270015560      -17.3039291639      -17.5080042000
 N       -2.8830000000      -16.4055730434      -19.9990042000
Al       -2.8830015560      -19.9990002205      -10.6233784000
Al       -4.4390000000      -19.1006441000      -13.1143784000
 N       -2.8830015560      -19.9990002205      -12.5260042000
 N       -4.4390000000      -19.1006441000      -15.0170042000
Al       -1.3270015560      -17.3039291639      -10.6233784000
Al       -2.8830000000      -16.4055730434      -13.1143784000
 N       -1.3270015560      -17.3039291639      -12.5260042000
 N       -2.8830000000      -16.4055730434      -15.0170042000
Al       -2.8830015560      -19.9990002205       -5.6413784000
Al       -4.4390000000      -19.1006441000       -8.1323784000
 N       -2.8830015560      -19.9990002205       -7.5440042000
 N       -4.4390000000      -19.1006441000      -10.0350042000
Al       -1.3270015560      -17.3039291639       -5.6413784000
Al       -2.8830000000      -16.4055730434       -8.1323784000
 N       -1.3270015560      -17.3039291639       -7.5440042000
 N       -2.8830000000      -16.4055730434      -10.0350042000
Al       -2.8830015560      -19.9990002205       -0.6593784000
Al       -4.4390000000      -19.1006441000       -3.1503784000
 N       -2.8830015560      -19.9990002205       -2.5620042000
 N       -4.4390000000      -19.1006441000       -5.0530042000
Al       -1.3270015560      -17.3039291639       -0.6593784000
Al       -2.8830000000      -16.4055730434       -3.1503784000
 N       -1.3270015560      -17.3039291639       -2.5620042000
 N       -2.8830000000      -16.4055730434       -5.0530042000
Al       -2.8830015560      -19.9990002205        4.3226216000
Al       -4.4390000000      -19.1006441000        1.8316216000
 N       -2.8830015560      -19.9990002205        2.4199958000
 N       -4.4390000000      -19.1006441000       -0.0710042000
Al       -1.3270015560      -17.3039291639        4.3226216000
Al       -2.8830000000      -16.4055730434        1.8316216000
 N       -1.3270015560      -17.3039291639        2.4199958000
 N       -2.8830000000      -16.4055730434       -0.0710042000
Al       -2.8830015560      -19.9990002205        9.3046216000
Al       -4.4390000000      -19.1006441000        6.8136216000
 N       -2.8830015560      -19.9990002205        7.4019958000
 N       -4.4390000000      -19.1006441000        4.9109958000
Al       -1.3270015560      -17.3039291639        9.3046216000
Al       -2.8830000000      -16.4055730434        6.8136216000
 N       -1.3270015560      -17.3039291639        7.4019958000
 N       -2.8830000000      -16.4055730434        4.9109958000
Al       -2.8830015560      -19.9990002205       14.2866216000
Al       -4.4390000000      -19.1006441000       11.7956216000
 N       -2.8830015560      -19.9990002205       12.3839958000
 N       -4.4390000000      -19.1006441000        9.8929958000
Al       -1.3270015560      -17.3039291639       14.2866216000
Al       -2.8830000000      -16.4055730434       11.7956216000
 N       -1.3270015560      -17.3039291639       12.3839958000
 N       -2.8830000000      -16.4055730434        9.8929958000
Al       -2.8830015560      -19.9990002205       19.2686216000
Al       -4.4390000000      -19.1006441000       16.7776216000
 N       -2.8830015560      -19.9990002205       17.3659958000
 N       -4.4390000000      -19.1006441000       14.8749958000
Al       -1.3270015560      -17.3039291639       19.2686216000
Al       -2.8830000000      -16.4055730434       16.7776216000
 N       -1.3270015560      -17.3039291639       17.3659958000
 N       -2.8830000000      -16.4055730434       14.8749958000
 N       -4.4390000000      -19.1006441000       19.8569958000
 N       -2.8830000000      -16.4055730434       19.8569958000
Al       -2.8830015560      -14.6088581073      -15.6053784000
Al       -4.4390000000      -13.7105019868      -18.0963784000
 N       -2.8830015560      -14.6088581073      -17.5080042000
 N       -4.4390000000      -13.7105019868      -19.9990042000
Al       -1.3270015560      -11.9137870508      -15.6053784000
Al       -2.8830000000      -11.0154309303      -18.0963784000
 N       -1.3270015560      -11.9137870508      -17.5080042000
 N       -2.8830000000      -11.0154309303      -19.9990042000
Al       -2.8830015560      -14.6088581073      -10.6233784000
Al       -4.4390000000      -13.7105019868      -13.1143784000
 N       -2.8830015560      -14.6088581073      -12.5260042000
 N       -4.4390000000      -13.7105019868      -15.0170042000
Al       -1.3270015560      -11.9137870508      -10.6233784000
Al       -2.8830000000      -11.0154309303      -13.1143784000
 N       -1.3270015560      -11.9137870508      -12.5260042000
 N       -2.8830000000      -11.0154309303      -15.0170042000
Al       -2.8830015560      -14.6088581073       -5.6413784000
Al       -4.4390000000      -13.7105019868       -8.1323784000
 N       -2.8830015560      -14.6088581073       -7.5440042000
 N       -4.4390000000      -13.7105019868      -10.0350042000
Al       -1.3270015560      -11.9137870508       -5.6413784000
Al       -2.8830000000      -11.0154309303       -8.1323784000
 N       -1.3270015560      -11.9137870508       -7.5440042000
 N       -2.8830000000      -11.0154309303      -10.0350042000
Al       -2.8830015560      -14.6088581073       -0.6593784000
Al       -4.4390000000      -13.7105019868       -3.1503784000
 N       -2.8830015560      -14.6088581073       -2.5620042000
 N       -4.4390000000      -13.7105019868       -5.0530042000
Al       -1.3270015560      -11.9137870508       -0.6593784000
Al       -2.8830000000      -11.0154309303       -3.1503784000
 N       -1.3270015560      -11.9137870508       -2.5620042000
 N       -2.8830000000      -11.0154309303       -5.0530042000
Al       -2.8830015560      -14.6088581073        4.3226216000
Al       -4.4390000000      -13.7105019868        1.8316216000
 N       -2.8830015560      -14.6088581073        2.4199958000
 N       -4.4390000000      -13.7105019868       -0.0710042000
Al       -1.3270015560      -11.9137870508        4.3226216000
Al       -2.8830000000      -11.0154309303        1.8316216000
 N       -1.3270015560      -11.9137870508        2.4199958000
 N       -2.8830000000      -11.0154309303       -0.0710042000
Al       -2.8830015560      -14.6088581073        9.3046216000
Al       -4.4390000000      -13.7105019868        6.8136216000
 N       -2.8830015560      -14.6088581073        7.4019958000
 N       -4.4390000000      -13.7105019868        4.9109958000
Al       -1.3270015560      -11.9137870508        9.3046216000
Al       -2.8830000000      -11.0154309303        6.8136216000
 N       -1.3270015560      -11.9137870508        7.4019958000
 N       -2.8830000000      -11.0154309303        4.9109958000
Al       -2.8830015560      -14.6088581073       14.2866216000
Al       -4.4390000000      -13.7105019868       11.7956216000
 N       -2.8830015560      -14.6088581073       12.3839958000
 N       -4.4390000000      -13.7105019868        9.8929958000
Al       -1.3270015560      -11.9137870508       14.2866216000
Al       -2.8830000000      -11.0154309303       11.7956216000
 N       -1.3270015560      -11.9137870508       12.3839958000
 N       -2.8830000000      -11.0154309303        9.8929958000
Al       -2.8830015560      -14.6088581073       19.2686216000
Al       -4.4390000000      -13.7105019868       16.7776216000
 N       -2.8830015560      -14.6088581073       17.3659958000
 N       -4.4390000000      -13.7105019868       14.8749958000
Al       -1.3270015560      -11.9137870508       19.2686216000
Al       -2.8830000000      -11.0154309303       16.7776216000
 N       -1.3270015560      -11.9137870508       17.3659958000
 N       -2.8830000000      -11.0154309303       14.8749958000
 N       -4.4390000000      -13.7105019868       19.8569958000
 N       -2.8830000000      -11.0154309303       19.8569958000
Al       -2.8830015560       -9.2187159942      -15.6053784000
Al       -4.4390000000       -8.3203598737      -18.0963784000
 N       -2.8830015560       -9.2187159942      -17.5080042000
 N       -4.4390000000       -8.3203598737      -19.9990042000
Al       -1.3270015560       -6.5236449376      -15.6053784000
Al       -2.8830000000       -5.6252888171      -18.0963784000
 N       -1.3270015560       -6.5236449376      -17.5080042000
 N       -2.8830000000       -5.6252888171      -19.9990042000
Al       -2.8830015560       -9.2187159942      -10.6233784000
Al       -4.4390000000       -8.3203598737      -13.1143784000
 N       -2.8830015560       -9.2187159942      -12.5260042000
 N       -4.4390000000       -8.3203598737      -15.0170042000
Al       -1.3270015560       -6.5236449376      -10.6233784000
Al       -2.8830000000       -5.6252888171      -13.1143784000
 N       -1.3270015560       -6.5236449376      -12.5260042000
 N       -2.8830000000       -5.6252888171      -15.0170042000
Al       -2.8830015560       -9.2187159942       -5.6413784000
Al       -4.4390000000       -8.3203598737       -8.1323784000
 N       -2.8830015560       -9.2187159942       -7.5440042000
 N       -4.4390000000       -8.3203598737      -10.0350042000
Ga       -1.3270015560       -6.5236449376       -5.6413784000
Al       -2.8830000000       -5.6252888171       -8.1323784000
 N       -1.3270015560       -6.5236449376       -7.5440042000
 N       -2.8830000000       -5.6252888171      -10.0350042000
Ga       -2.8830015560       -9.2187159942       -0.6593784000
Ga       -4.4390000000       -8.3203598737       -3.1503784000
 N       -2.8830015560       -9.2187159942       -2.5620042000
 N       -4.4390000000       -8.3203598737       -5.0530042000
Ga       -1.3270015560       -6.5236449376       -0.6593784000
Ga       -2.8830000000       -5.6252888171       -3.1503784000
 N       -1.3270015560       -6.5236449376       -2.5620042000
 N       -2.8830000000       -5.6252888171       -5.0530042000
Al       -2.8830015560       -9.2187159942        4.3226216000
Ga       -4.4390000000       -8.3203598737        1.8316216000
 N       -2.8830015560       -9.2187159942        2.4199958000
 N       -4.4390000000       -8.3203598737       -0.0710042000
Ga       -1.3270015560       -6.5236449376        4.3226216000
Ga       -2.8830000000       -5.6252888171        1.8316216000
 N       -1.3270015560       -6.5236449376        2.4199958000
 N       -2.8830000000       -5.6252888171       -0.0710042000
Al       -2.8830015560       -9.2187159942        9.3046216000
Al       -4.4390000000       -8.3203598737        6.8136216000
 N       -2.8830015560       -9.2187159942        7.4019958000
 N       -4.4390000000       -8.3203598737        4.9109958000
Al       -1.3270015560       -6.5236449376        9.3046216000
Ga       -2.8830000000       -5.6252888171        6.8136216000
 N       -1.3270015560       -6.5236449376        7.4019958000
 N       -2.8830000000       -5.6252888171        4.9109958000
Al       -2.8830015560       -9.2187159942       14.2866216000
Al       -4.4390000000       -8.3203598737       11.7956216000
 N       -2.8830015560       -9.2187159942       12.3839958000
 N       -4.4390000000       -8.3203598737        9.8929958000
Al       -1.3270015560       -6.5236449376       14.2866216000
Al       -2.8830000000       -5.6252888171       11.7956216000
 N       -1.3270015560       -6.5236449376       12.3839958000
 N       -2.8830000000       -5.6252888171        9.8929958000
Al       -2.8830015560       -9.2187159942       19.2686216000
Al       -4.4390000000       -8.3203598737       16.7776216000
 N       -2.8830015560       -9.2187159942       17.3659958000
 N       -4.4390000000       -8.3203598737       14.8749958000
Al       -1.3270015560       -6.5236449376       19.2686216000
Al       -2.8830000000       -5.6252888171       16.7776216000
 N       -1.3270015560       -6.5236449376       17.3659958000
 N       -2.8830000000       -5.6252888171       14.8749958000
 N       -4.4390000000       -8.3203598737       19.8569958000
 N       -2.8830000000       -5.6252888171       19.8569958000
Al       -2.8830015560       -3.8285738810      -15.6053784000
Al       -4.4390000000       -2.9302177605      -18.0963784000
 N       -2.8830015560       -3.8285738810      -17.5080042000
 N       -4.4390000000       -2.9302177605      -19.9990042000
Al       -1.3270015560       -1.1335028245      -15.6053784000
Al       -2.8830000000       -0.2351467040      -18.0963784000
 N       -1.3270015560       -1.1335028245      -17.5080042000
 N       -2.8830000000       -0.2351467040      -19.9990042000
Al       -2.8830015560       -3.8285738810      -10.6233784000
Al       -4.4390000000       -2.9302177605      -13.1143784000
 N       -2.8830015560       -3.8285738810      -12.5260042000
 N       -4.4390000000       -2.9302177605      -15.0170042000
Al       -1.3270015560       -1.1335028245      -10.6233784000
Al       -2.8830000000       -0.2351467040      -13.1143784000
 N       -1.3270015560       -1.1335028245      -12.5260042000
 N       -2.8830000000       -0.2351467040      -15.0170042000
Ga       -2.8830015560       -3.8285738810       -5.6413784000
Ga       -4.4390000000       -2.9302177605       -8.1323784000
 N       -2.8830015560       -3.8285738810       -7.5440042000
 N       -4.4390000000       -2.9302177605      -10.0350042000
Ga       -1.3270015560       -1.1335028245       -5.6413784000
Ga       -2.8830000000       -0.2351467040       -8.1323784000
 N       -1.3270015560       -1.1335028245       -7.5440042000
 N       -2.8830000000       -0.2351467040      -10.0350042000
Ga       -2.8830015560       -3.8285738810       -0.6593784000
Ga       -4.4390000000       -2.9302177605       -3.1503784000
 N       -2.8830015560       -3.8285738810       -2.5620042000
 N       -4.4390000000       -2.9302177605       -5.0530042000
Ga       -1.3270015560       -1.1335028245       -0.6593784000
Ga       -2.8830000000       -0.2351467040       -3.1503784000
 N       -1.3270015560       -1.1335028245       -2.5620042000
 N       -2.8830000000       -0.2351467040       -5.0530042000
Ga       -2.8830015560       -3.8285738810        4.3226216000
Ga       -4.4390000000       -2.9302177605        1.8316216000
 N       -2.8830015560       -3.8285738810        2.4199958000
 N       -4.4390000000       -2.9302177605       -0.0710042000
Ga       -1.3270015560       -1.1335028245        4.3226216000
Ga       -2.8830000000       -0.2351467040        1.8316216000
 N       -1.3270015560       -1.1335028245        2.4199958000
 N       -2.8830000000       -0.2351467040       -0.0710042000
Al       -2.8830015560       -3.8285738810        9.3046216000
Ga       -4.4390000000       -2.9302177605        6.8136216000
 N       -2.8830015560       -3.8285738810        7.4019958000
 N       -4.4390000000       -2.9302177605        4.9109958000
Ga       -1.3270015560       -1.1335028245        9.3046216000
Ga       -2.8830000000       -0.2351467040        6.8136216000
 N       -1.3270015560       -1.1335028245        7.4019958000
 N       -2.8830000000       -0.2351467040        4.9109958000
Al       -2.8830015560       -3.8285738810       14.2866216000
Al       -4.4390000000       -2.9302177605       11.7956216000
 N       -2.8830015560       -3.8285738810       12.3839958000
 N       -4.4390000000       -2.9302177605        9.8929958000
Al       -1.3270015560       -1.1335028245       14.2866216000
Al       -2.8830000000       -0.2351467040       11.7956216000
 N       -1.3270015560       -1.1335028245       12.3839958000
 N       -2.8830000000       -0.2351467040        9.8929958000
Al       -2.8830015560       -3.8285738810       19.2686216000
Al       -4.4390000000       -2.9302177605       16.7776216000
 N       -2.8830015560       -3.8285738810       17.3659958000
 N       -4.4390000000       -2.9302177605       14.8749958000
Al       -1.3270015560       -1.1335028245       19.2686216000
Al       -2.8830000000       -0.2351467040       16.7776216000
 N       -1.3270015560       -1.1335028245       17.3659958000
 N       -2.8830000000       -0.2351467040       14.8749958000
 N       -4.4390000000       -2.9302177605       19.8569958000
 N       -2.8830000000       -0.2351467040       19.8569958000
Al       -2.8830015560        1.5615682321      -15.6053784000
Al       -4.4390000000        2.4599243526      -18.0963784000
 N       -2.8830015560        1.5615682321      -17.5080042000
 N       -4.4390000000        2.4599243526      -19.9990042000
Al       -1.3270015560        4.2566392887      -15.6053784000
Al       -2.8830000000        5.1549954092      -18.0963784000
 N       -1.3270015560        4.2566392887      -17.5080042000
 N       -2.8830000000        5.1549954092      -19.9990042000
Al       -2.8830015560        1.5615682321      -10.6233784000
Al       -4.4390000000        2.4599243526      -13.1143784000
 N       -2.8830015560        1.5615682321      -12.5260042000
 N       -4.4390000000        2.4599243526      -15.0170042000
Al       -1.3270015560        4.2566392887      -10.6233784000
Al       -2.8830000000        5.1549954092      -13.1143784000
 N       -1.3270015560        4.2566392887      -12.5260042000
 N       -2.8830000000        5.1549954092      -15.0170042000
Ga       -2.8830015560        1.5615682321       -5.6413784000
Ga       -4.4390000000        2.4599243526       -8.1323784000
 N       -2.8830015560        1.5615682321       -7.5440042000
 N       -4.4390000000        2.4599243526      -10.0350042000
Ga       -1.3270015560        4.2566392887       -5.6413784000
Al       -2.8830000000        5.1549954092       -8.1323784000
 N       -1.3270015560        4.2566392887       -7.5440042000
 N       -2.8830000000        5.1549954092      -10.0350042000
Ga       -2.8830015560        1.5615682321       -0.6593784000
Ga       -4.4390000000        2.4599243526       -3.1503784000
 N       -2.8830015560        1.5615682321       -2.5620042000
 N       -4.4390000000        2.4599243526       -5.0530042000
Ga       -1.3270015560        4.2566392887       -0.6593784000
Ga       -2.8830000000        5.1549954092       -3.1503784000
 N       -1.3270015560        4.2566392887       -2.5620042000
 N       -2.8830000000        5.1549954092       -5.0530042000
Ga       -2.8830015560        1.5615682321        4.3226216000
Ga       -4.4390000000        2.4599243526        1.8316216000
 N       -2.8830015560        1.5615682321        2.4199958000
 N       -4.4390000000        2.4599243526       -0.0710042000
Ga       -1.3270015560        4.2566392887        4.3226216000
Ga       -2.8830000000        5.1549954092        1.8316216000
 N       -1.3270015560        4.2566392887        2.4199958000
 N       -2.8830000000        5.1549954092       -0.0710042000
Ga       -2.8830015560        1.5615682321        9.3046216000
Ga       -4.4390000000        2.4599243526        6.8136216000
 N       -2.8830015560        1.5615682321        7.4019958000
 N       -4.4390000000        2.4599243526        4.9109958000
Al       -1.3270015560        4.2566392887        9.3046216000
Ga       -2.8830000000        5.1549954092        6.8136216000
 N       -1.3270015560        4.2566392887        7.4019958000
 N       -2.8830000000        5.1549954092        4.9109958000
Al       -2.8830015560        1.5615682321       14.2866216000
Al       -4.4390000000        2.4599243526       11.7956216000
 N       -2.8830015560        1.5615682321       12.3839958000
 N       -4.4390000000        2.4599243526        9.8929958000
Al       -1.3270015560        4.2566392887       14.2866216000
Al       -2.8830000000        5.1549954092       11.7956216000
 N       -1.3270015560        4.2566392887       12.3839958000
 N       -2.8830000000        5.1549954092        9.8929958000
Al       -2.8830015560        1.5615682321       19.2686216000
Al       -4.4390000000        2.4599243526       16.7776216000
 N       -2.8830015560        1.5615682321       17.3659958000
 N       -4.4390000000        2.4599243526       14.8749958000
Al       -1.3270015560        4.2566392887       19.2686216000
Al       -2.8830000000        5.1549954092       16.7776216000
 N       -1.3270015560        4.2566392887       17.3659958000
 N       -2.8830000000        5.1549954092       14.8749958000
 N       -4.4390000000        2.4599243526       19.8569958000
 N       -2.8830000000        5.1549954092       19.8569958000
Al       -2.8830015560        6.9517103453      -15.6053784000
Al       -4.4390000000        7.8500664658      -18.0963784000
 N       -2.8830015560        6.9517103453      -17.5080042000
 N       -4.4390000000        7.8500664658      -19.9990042000
Al       -1.3270015560        9.6467814018      -15.6053784000
Al       -2.8830000000       10.5451375223      -18.0963784000
 N       -1.3270015560        9.6467814018      -17.5080042000
 N       -2.8830000000       10.5451375223      -19.9990042000
Al       -2.8830015560        6.9517103453      -10.6233784000
Al       -4.4390000000        7.8500664658      -13.1143784000
 N       -2.8830015560        6.9517103453      -12.5260042000
 N       -4.4390000000        7.8500664658      -15.0170042000
Al       -1.3270015560        9.6467814018      -10.6233784000
Al       -2.8830000000       10.5451375223      -13.1143784000
 N       -1.3270015560        9.6467814018      -12.5260042000
 N       -2.8830000000       10.5451375223      -15.0170042000
Ga       -2.8830015560        6.9517103453       -5.6413784000
Al       -4.4390000000        7.8500664658       -8.1323784000
 N       -2.8830015560        6.9517103453       -7.5440042000
 N       -4.4390000000        7.8500664658      -10.0350042000
Al       -1.3270015560        9.6467814018       -5.6413784000
Al       -2.8830000000       10.5451375223       -8.1323784000
 N       -1.3270015560        9.6467814018       -7.5440042000
 N       -2.8830000000       10.5451375223      -10.0350042000
Ga       -2.8830015560        6.9517103453       -0.6593784000
Ga       -4.4390000000        7.8500664658       -3.1503784000
 N       -2.8830015560        6.9517103453       -2.5620042000
 N       -4.4390000000        7.8500664658       -5.0530042000
Ga       -1.3270015560        9.6467814018       -0.6593784000
Al       -2.8830000000       10.5451375223       -3.1503784000
 N       -1.3270015560        9.6467814018       -2.5620042000
 N       -2.8830000000       10.5451375223       -5.0530042000
Ga       -2.8830015560        6.9517103453        4.3226216000
Ga       -4.4390000000        7.8500664658        1.8316216000
 N       -2.8830015560        6.9517103453        2.4199958000
 N       -4.4390000000        7.8500664658       -0.0710042000
Al       -1.3270015560        9.6467814018        4.3226216000
Al       -2.8830000000       10.5451375223        1.8316216000
 N       -1.3270015560        9.6467814018        2.4199958000
 N       -2.8830000000       10.5451375223       -0.0710042000
Al       -2.8830015560        6.9517103453        9.3046216000
Al       -4.4390000000        7.8500664658        6.8136216000
 N       -2.8830015560        6.9517103453        7.4019958000
 N       -4.4390000000        7.8500664658        4.9109958000
Al       -1.3270015560        9.6467814018        9.3046216000
Al       -2.8830000000       10.5451375223        6.8136216000
 N       -1.3270015560        9.6467814018        7.4019958000
 N       -2.8830000000       10.5451375223        4.9109958000
Al       -2.8830015560        6.9517103453       14.2866216000
Al       -4.4390000000        7.8500664658       11.7956216000
 N       -2.8830015560        6.9517103453       12.3839958000
 N       -4.4390000000        7.8500664658        9.8929958000
Al       -1.3270015560        9.6467814018       14.2866216000
Al       -2.8830000000       10.5451375223       11.7956216000
 N       -1.3270015560        9.6467814018       12.3839958000
 N       -2.8830000000       10.5451375223        9.8929958000
Al       -2.8830015560        6.9517103453       19.2686216000
Al       -4.4390000000        7.8500664658       16.7776216000
 N       -2.8830015560        6.9517103453       17.3659958000
 N       -4.4390000000        7.8500664658       14.8749958000
Al       -1.3270015560        9.6467814018       19.2686216000
Al       -2.8830000000       10.5451375223       16.7776216000
 N       -1.3270015560        9.6467814018       17.3659958000
 N       -2.8830000000       10.5451375223       14.8749958000
 N       -4.4390000000        7.8500664658       19.8569958000
 N       -2.8830000000       10.5451375223       19.8569958000
Al       -2.8830015560       12.3418524584      -15.6053784000
Al       -4.4390000000       13.2402085789      -18.0963784000
 N       -2.8830015560       12.3418524584      -17.5080042000
 N       -4.4390000000       13.2402085789      -19.9990042000
Al       -1.3270015560       15.0369235150      -15.6053784000
Al       -2.8830000000       15.9352796355      -18.0963784000
 N       -1.3270015560       15.0369235150      -17.5080042000
 N       -2.8830000000       15.9352796355      -19.9990042000
Al       -2.8830015560       12.3418524584      -10.6233784000
Al       -4.4390000000       13.2402085789      -13.1143784000
 N       -2.8830015560       12.3418524584      -12.5260042000
 N       -4.4390000000       13.2402085789      -15.0170042000
Al       -1.3270015560       15.0369235150      -10.6233784000
Al       -2.8830000000       15.9352796355      -13.1143784000
 N       -1.3270015560       15.0369235150      -12.5260042000
 N       -2.8830000000       15.9352796355      -15.0170042000
Al       -2.8830015560       12.3418524584       -5.6413784000
Al       -4.4390000000       13.2402085789       -8.1323784000
 N       -2.8830015560       12.3418524584       -7.5440042000
 N       -4.4390000000       13.2402085789      -10.0350042000
Al       -1.3270015560       15.0369235150       -5.6413784000
Al       -2.8830000000       15.9352796355       -8.1323784000
 N       -1.3270015560       15.0369235150       -7.5440042000
 N       -2.8830000000       15.9352796355      -10.0350042000
Al       -2.8830015560       12.3418524584       -0.6593784000
Al       -4.4390000000       13.2402085789       -3.1503784000
 N       -2.8830015560       12.3418524584       -2.5620042000
 N       -4.4390000000       13.2402085789       -5.0530042000
Al       -1.3270015560       15.0369235150       -0.6593784000
Al       -2.8830000000       15.9352796355       -3.1503784000
 N       -1.3270015560       15.0369235150       -2.5620042000
 N       -2.8830000000       15.9352796355       -5.0530042000
Al       -2.8830015560       12.3418524584        4.3226216000
Al       -4.4390000000       13.2402085789        1.8316216000
 N       -2.8830015560       12.3418524584        2.4199958000
 N       -4.4390000000       13.2402085789       -0.0710042000
Al       -1.3270015560       15.0369235150        4.3226216000
Al       -2.8830000000       15.9352796355        1.8316216000
 N       -1.3270015560       15.0369235150        2.4199958000
 N       -2.8830000000       15.9352796355       -0.0710042000
Al       -2.8830015560       12.3418524584        9.3046216000
Al       -4.4390000000       13.2402085789        6.8136216000
 N       -2.8830015560       12.3418524584        7.4019958000
 N       -4.4390000000       13.2402085789        4.9109958000
Al       -1.3270015560       15.0369235150        9.3046216000
Al       -2.8830000000       15.9352796355        6.8136216000
 N       -1.3270015560       15.0369235150        7.4019958000
 N       -2.8830000000       15.9352796355        4.9109958000
Al       -2.8830015560       12.3418524584       14.2866216000
Al       -4.4390000000       13.2402085789       11.7956216000
 N       -2.8830015560       12.3418524584       12.3839958000
 N       -4.4390000000       13.2402085789        9.8929958000
Al       -1.3270015560       15.0369235150       14.2866216000
Al       -2.8830000000       15.9352796355       11.7956216000
 N       -1.3270015560       15.0369235150       12.3839958000
 N       -2.8830000000       15.9352796355        9.8929958000
Al       -2.8830015560       12.3418524584       19.2686216000
Al       -4.4390000000       13.2402085789       16.7776216000
 N       -2.8830015560       12.3418524584       17.3659958000
 N       -4.4390000000       13.2402085789       14.8749958000
Al       -1.3270015560       15.0369235150       19.2686216000
Al       -2.8830000000       15.9352796355       16.7776216000
 N       -1.3270015560       15.0369235150       17.3659958000
 N       -2.8830000000       15.9352796355       14.8749958000
 N       -4.4390000000       13.2402085789       19.8569958000
 N       -2.8830000000       15.9352796355       19.8569958000
Al       -2.8830015560       17.7319945716      -15.6053784000
Al       -4.4390000000       18.6303506921      -18.0963784000
 N       -2.8830015560       17.7319945716      -17.5080042000
 N       -4.4390000000       18.6303506921      -19.9990042000
Al       -2.8830015560       17.7319945716      -10.6233784000
Al       -4.4390000000       18.6303506921      -13.1143784000
 N       -2.8830015560       17.7319945716      -12.5260042000
 N       -4.4390000000       18.6303506921      -15.0170042000
Al       -2.8830015560       17.7319945716       -5.6413784000
Al       -4.4390000000       18.6303506921       -8.1323784000
 N       -2.8830015560       17.7319945716       -7.5440042000
 N       -4.4390000000       18.6303506921      -10.0350042000
Al       -2.8830015560       17.7319945716       -0.6593784000
Al       -4.4390000000       18.6303506921       -3.1503784000
 N       -2.8830015560       17.7319945716       -2.5620042000
 N       -4.4390000000       18.6303506921       -5.0530042000
Al       -2.8830015560       17.7319945716        4.3226216000
Al       -4.4390000000       18.6303506921        1.8316216000
 N       -2.8830015560       17.7319945716        2.4199958000
 N       -4.4390000000       18.6303506921       -0.0710042000
Al       -2.8830015560       17.7319945716        9.3046216000
Al       -4.4390000000       18.6303506921        6.8136216000
 N       -2.8830015560       17.7319945716        7.4019958000
 N       -4.4390000000       18.6303506921        4.9109958000
Al       -2.8830015560       17.7319945716       14.2866216000
Al       -4.4390000000       18.6303506921       11.7956216000
 N       -2.8830015560       17.7319945716       12.3839958000
 N       -4.4390000000       18.6303506921        9.8929958000
Al       -2.8830015560       17.7319945716       19.2686216000
Al       -4.4390000000       18.6303506921       16.7776216000
 N       -2.8830015560       17.7319945716       17.3659958000
 N       -4.4390000000       18.6303506921       14.8749958000
 N       -4.4390000000       18.6303506921       19.8569958000
Al        0.2289984440      -19.9990002205      -15.6053784000
Al       -1.3270000000      -19.1006441000      -18.0963784000
 N        0.2289984440      -19.9990002205      -17.5080042000
 N       -1.3270000000      -19.1006441000      -19.9990042000
Al        1.7849984440      -17.3039291639      -15.6053784000
Al        0.2290000000      -16.4055730434      -18.0963784000
 N        1.7849984440      -17.3039291639      -17.5080042000
 N        0.2290000000      -16.4055730434      -19.9990042000
Al        0.2289984440      -19.9990002205      -10.6233784000
Al       -1.3270000000      -19.1006441000      -13.1143784000
 N        0.2289984440      -19.9990002205      -12.5260042000
 N       -1.3270000000      -19.1006441000      -15.0170042000
Al        1.7849984440      -17.3039291639      -10.6233784000
Al        0.2290000000      -16.4055730434      -13.1143784000
 N        1.7849984440      -17.3039291639      -12.5260042000
 N        0.2290000000      -16.4055730434      -15.0170042000
Al        0.2289984440      -19.9990002205       -5.6413784000
Al       -1.3270000000      -19.1006441000       -8.1323784000
 N        0.2289984440      -19.9990002205       -7.5440042000
 N       -1.3270000000      -19.1006441000      -10.0350042000
Al        1.7849984440      -17.3039291639       -5.6413784000
Al        0.2290000000      -16.4055730434       -8.1323784000
 N        1.7849984440      -17.3039291639       -7.5440042000
 N        0.2290000000      -16.4055730434      -10.0350042000
Al        0.2289984440      -19.9990002205       -0.6593784000
Al       -1.3270000000      -19.1006441000       -3.1503784000
 N        0.2289984440      -19.9990002205       -2.5620042000
 N       -1.3270000000      -19.1006441000       -5.0530042000
Al        1.7849984440      -17.3039291639       -0.6593784000
Al        0.2290000000      -16.4055730434       -3.1503784000
 N        1.7849984440      -17.3039291639       -2.5620042000
 N        0.2290000000      -16.4055730434       -5.0530042000
Al        0.2289984440      -19.9990002205        4.3226216000
Al       -1.3270000000      -19.1006441000        1.8316216000
 N        0.2289984440      -19.9990002205        2.4199958000
 N       -1.3270000000      -19.1006441000       -0.0710042000
Al        1.7849984440      -17.3039291639        4.3226216000
Al        0.2290000000      -16.4055730434        1.8316216000
 N        1.7849984440      -17.3039291639        2.4199958000
 N        0.2290000000      -16.4055730434       -0.0710042000
Al        0.2289984440      -19.9990002205        9.3046216000
Al       -1.3270000000      -19.1006441000        6.8136216000
 N        0.2289984440      -19.9990002205        7.4019958000
 N       -1.3270000000      -19.1006441000        4.9109958000
Al        1.7849984440      -17.3039291639        9.3046216000
Al        0.2290000000      -16.4055730434        6.8136216000
 N        1.7849984440      -17.3039291639        7.4019958000
 N        0.2290000000      -16.4055730434        4.9109958000
Al        0.2289984440      -19.9990002205       14.2866216000
Al       -1.3270000000      -19.1006441000       11.7956216000
 N        0.2289984440      -19.9990002205       12.3839958000
 N       -1.3270000000      -19.1006441000        9.8929958000
Al        1.7849984440      -17.3039291639       14.2866216000
Al        0.2290000000      -16.4055730434       11.7956216000
 N        1.7849984440      -17.3039291639       12.3839958000
 N        0.2290000000      -16.4055730434        9.8929958000
Al        0.2289984440      -19.9990002205       19.2686216000
Al       -1.3270000000      -19.1006441000       16.7776216000
 N        0.2289984440      -19.9990002205       17.3659958000
 N       -1.3270000000      -19.1006441000       14.8749958000
Al        1.7849984440      -17.3039291639       19.2686216000
Al        0.2290000000      -16.4055730434       16.7776216000
 N        1.7849984440      -17.3039291639       17.3659958000
 N        0.2290000000      -16.4055730434       14.8749958000
 N       -1.3270000000      -19.1006441000       19.8569958000
 N        0.2290000000      -16.4055730434       19.8569958000
Al        0.2289984440      -14.6088581073      -15.6053784000
Al       -1.3270000000      -13.7105019868      -18.0963784000
 N        0.2289984440      -14.6088581073      -17.5080042000
 N       -1.3270000000      -13.7105019868      -19.9990042000
Al        1.7849984440      -11.9137870508      -15.6053784000
Al        0.2290000000      -11.0154309303      -18.0963784000
 N        1.7849984440      -11.9137870508      -17.5080042000
 N        0.2290000000      -11.0154309303      -19.9990042000
Al        0.2289984440      -14.6088581073      -10.6233784000
Al       -1.3270000000      -13.7105019868      -13.1143784000
 N        0.2289984440      -14.6088581073      -12.5260042000
 N       -1.3270000000      -13.7105019868      -15.0170042000
Al        1.7849984440      -11.9137870508      -10.6233784000
Al        0.2290000000      -11.0154309303      -13.1143784000
 N        1.7849984440      -11.9137870508      -12.5260042000
 N        0.2290000000      -11.0154309303      -15.0170042000
Al        0.2289984440      -14.6088581073       -5.6413784000
Al       -1.3270000000      -13.7105019868       -8.1323784000
 N        0.2289984440      -14.6088581073       -7.5440042000
 N       -1.3270000000      -13.7105019868      -10.0350042000
Al        1.7849984440      -11.9137870508       -5.6413784000
Al        0.2290000000      -11.0154309303       -8.1323784000
 N        1.7849984440      -11.9137870508       -7.5440042000
 N        0.2290000000      -11.0154309303      -10.0350042000
Al        0.2289984440      -14.6088581073       -0.6593784000
Al       -1.3270000000      -13.7105019868       -3.1503784000
 N        0.2289984440      -14.6088581073       -2.5620042000
 N       -1.3270000000      -13.7105019868       -5.0530042000
Al        1.7849984440      -11.9137870508       -0.6593784000
Al        0.2290000000      -11.0154309303       -3.1503784000
 N        1.7849984440      -11.9137870508       -2.5620042000
 N        0.2290000000      -11.0154309303       -5.0530042000
Al        0.2289984440      -14.6088581073        4.3226216000
Al       -1.3270000000      -13.7105019868        1.8316216000
 N        0.2289984440      -14.6088581073        2.4199958000
 N       -1.3270000000      -13.7105019868       -0.0710042000
Al        1.7849984440      -11.9137870508        4.3226216000
Al        0.2290000000      -11.0154309303        1.8316216000
 N        1.7849984440      -11.9137870508        2.4199958000
 N        0.2290000000      -11.0154309303       -0.0710042000
Al        0.2289984440      -14.6088581073        9.3046216000
Al       -1.3270000000      -13.7105019868        6.8136216000
 N        0.2289984440      -14.6088581073        7.4019958000
 N       -1.3270000000      -13.7105019868        4.9109958000
Al        1.7849984440      -11.9137870508        9.3046216000
Al        0.2290000000      -11.0154309303        6.8136216000
 N        1.7849984440      -11.9137870508        7.4019958000
 N        0.2290000000      -11.0154309303        4.9109958000
Al        0.2289984440      -14.6088581073       14.2866216000
Al       -1.3270000000      -13.7105019868       11.7956216000
 N        0.2289984440      -14.6088581073       12.3839958000
 N       -1.3270000000      -13.7105019868        9.8929958000
Al        1.7849984440      -11.9137870508       14.2866216000
Al        0.2290000000      -11.0154309303       11.7956216000
 N        1.7849984440      -11.9137870508       12.3839958000
 N        0.2290000000      -11.0154309303        9.8929958000
Al        0.2289984440      -14.6088581073       19.2686216000
Al       -1.3270000000      -13.7105019868       16.7776216000
 N        0.2289984440      -14.6088581073       17.3659958000
 N       -1.3270000000      -13.7105019868       14.8749958000
Al        1.7849984440      -11.9137870508       19.2686216000
Al        0.2290000000      -11.0154309303       16.7776216000
 N        1.7849984440      -11.9137870508       17.3659958000
 N        0.2290000000      -11.0154309303       14.8749958000
 N       -1.3270000000      -13.7105019868       19.8569958000
 N        0.2290000000      -11.0154309303       19.8569958000
Al        0.2289984440       -9.2187159942      -15.6053784000
Al       -1.3270000000       -8.3203598737      -18.0963784000
 N        0.2289984440       -9.2187159942      -17.5080042000
 N       -1.3270000000       -8.3203598737      -19.9990042000
Al        1.7849984440       -6.5236449376      -15.6053784000
Al        0.2290000000       -5.6252888171      -18.0963784000
 N        1.7849984440       -6.5236449376      -17.5080042000
 N        0.2290000000       -5.6252888171      -19.9990042000
Al        0.2289984440       -9.2187159942      -10.6233784000
Al       -1.3270000000       -8.3203598737      -13.1143784000
 N        0.2289984440       -9.2187159942      -12.5260042000
 N       -1.3270000000       -8.3203598737      -15.0170042000
Al        1.7849984440       -6.5236449376      -10.6233784000
Al        0.2290000000       -5.6252888171      -13.1143784000
 N        1.7849984440       -6.5236449376      -12.5260042000
 N        0.2290000000       -5.6252888171      -15.0170042000
Al        0.2289984440       -9.2187159942       -5.6413784000
Al       -1.3270000000       -8.3203598737       -8.1323784000
 N        0.2289984440       -9.2187159942       -7.5440042000
 N       -1.3270000000       -8.3203598737      -10.0350042000
Ga        1.7849984440       -6.5236449376       -5.6413784000
Ga        0.2290000000       -5.6252888171       -8.1323784000
 N        1.7849984440       -6.5236449376       -7.5440042000
 N        0.2290000000       -5.6252888171      -10.0350042000
Ga        0.2289984440       -9.2187159942       -0.6593784000
Ga       -1.3270000000       -8.3203598737       -3.1503784000
 N        0.2289984440       -9.2187159942       -2.5620042000
 N       -1.3270000000       -8.3203598737       -5.0530042000
Ga        1.7849984440       -6.5236449376       -0.6593784000
Ga        0.2290000000       -5.6252888171       -3.1503784000
 N        1.7849984440       -6.5236449376       -2.5620042000
 N        0.2290000000       -5.6252888171       -5.0530042000
Al        0.2289984440       -9.2187159942        4.3226216000
Ga       -1.3270000000       -8.3203598737        1.8316216000
 N        0.2289984440       -9.2187159942        2.4199958000
 N       -1.3270000000       -8.3203598737       -0.0710042000
Ga        1.7849984440       -6.5236449376        4.3226216000
Ga        0.2290000000       -5.6252888171        1.8316216000
 N        1.7849984440       -6.5236449376        2.4199958000
 N        0.2290000000       -5.6252888171       -0.0710042000
Al        0.2289984440       -9.2187159942        9.3046216000
Al       -1.3270000000       -8.3203598737        6.8136216000
 N        0.2289984440       -9.2187159942        7.4019958000
 N       -1.3270000000       -8.3203598737        4.9109958000
Al        1.7849984440       -6.5236449376        9.3046216000
Ga        0.2290000000       -5.6252888171        6.8136216000
 N        1.7849984440       -6.5236449376        7.4019958000
 N        0.2290000000       -5.6252888171        4.9109958000
Al        0.2289984440       -9.2187159942       14.2866216000
Al       -1.3270000000       -8.3203598737       11.7956216000
 N        0.2289984440       -9.2187159942       12.3839958000
 N       -1.3270000000       -8.3203598737        9.8929958000
Al        1.7849984440       -6.5236449376       14.2866216000
Al        0.2290000000       -5.6252888171       11.7956216000
 N        1.7849984440       -6.5236449376       12.3839958000
 N        0.2290000000       -5.6252888171        9.8929958000
Al        0.2289984440       -9.2187159942       19.2686216000
Al       -1.3270000000       -8.3203598737       16.7776216000
 N        0.2289984440       -9.2187159942       17.3659958000
 N       -1.3270000000       -8.3203598737       14.8749958000
Al        1.7849984440       -6.5236449376       19.2686216000
Al        0.2290000000       -5.6252888171       16.7776216000
 N        1.7849984440       -6.5236449376       17.3659958000
 N        0.2290000000       -5.6252888171       14.8749958000
 N       -1.3270000000       -8.3203598737       19.8569958000
 N        0.2290000000       -5.6252888171       19.8569958000
Al        0.2289984440       -3.8285738810      -15.6053784000
Al       -1.3270000000       -2.9302177605      -18.0963784000
 N        0.2289984440       -3.8285738810      -17.5080042000
 N       -1.3270000000       -2.9302177605      -19.9990042000
Al        1.7849984440       -1.1335028245      -15.6053784000
Al        0.2290000000       -0.2351467040      -18.0963784000
 N        1.7849984440       -1.1335028245      -17.5080042000
 N        0.2290000000       -0.2351467040      -19.9990042000
Al        0.2289984440       -3.8285738810      -10.6233784000
Al       -1.3270000000       -2.9302177605      -13.1143784000
 N        0.2289984440       -3.8285738810      -12.5260042000
 N       -1.3270000000       -2.9302177605      -15.0170042000
Al        1.7849984440       -1.1335028245      -10.6233784000
Al        0.2290000000       -0.2351467040      -13.1143784000
 N        1.7849984440       -1.1335028245      -12.5260042000
 N        0.2290000000       -0.2351467040      -15.0170042000
Ga        0.2289984440       -3.8285738810       -5.6413784000
Ga       -1.3270000000       -2.9302177605       -8.1323784000
 N        0.2289984440       -3.8285738810       -7.5440042000
 N       -1.3270000000       -2.9302177605      -10.0350042000
Ga        1.7849984440       -1.1335028245       -5.6413784000
Ga        0.2290000000       -0.2351467040       -8.1323784000
 N        1.7849984440       -1.1335028245       -7.5440042000
 N        0.2290000000       -0.2351467040      -10.0350042000
Ga        0.2289984440       -3.8285738810       -0.6593784000
Ga       -1.3270000000       -2.9302177605       -3.1503784000
 N        0.2289984440       -3.8285738810       -2.5620042000
 N       -1.3270000000       -2.9302177605       -5.0530042000
Ga        1.7849984440       -1.1335028245       -0.6593784000
Ga        0.2290000000       -0.2351467040       -3.1503784000
 N        1.7849984440       -1.1335028245       -2.5620042000
 N        0.2290000000       -0.2351467040       -5.0530042000
Ga        0.2289984440       -3.8285738810        4.3226216000
Ga       -1.3270000000       -2.9302177605        1.8316216000
 N        0.2289984440       -3.8285738810        2.4199958000
 N       -1.3270000000       -2.9302177605       -0.0710042000
Ga        1.7849984440       -1.1335028245        4.3226216000
Ga        0.2290000000       -0.2351467040        1.8316216000
 N        1.7849984440       -1.1335028245        2.4199958000
 N        0.2290000000       -0.2351467040       -0.0710042000
Al        0.2289984440       -3.8285738810        9.3046216000
Ga       -1.3270000000       -2.9302177605        6.8136216000
 N        0.2289984440       -3.8285738810        7.4019958000
 N       -1.3270000000       -2.9302177605        4.9109958000
Ga        1.7849984440       -1.1335028245        9.3046216000
Ga        0.2290000000       -0.2351467040        6.8136216000
 N        1.7849984440       -1.1335028245        7.4019958000
 N        0.2290000000       -0.2351467040        4.9109958000
Al        0.2289984440       -3.8285738810       14.2866216000
Al       -1.3270000000       -2.9302177605       11.7956216000
 N        0.2289984440       -3.8285738810       12.3839958000
 N       -1.3270000000       -2.9302177605        9.8929958000
Al        1.7849984440       -1.1335028245       14.2866216000
Al        0.2290000000       -0.2351467040       11.7956216000
 N        1.7849984440       -1.1335028245       12.3839958000
 N        0.2290000000       -0.2351467040        9.8929958000
Al        0.2289984440       -3.8285738810       19.2686216000
Al       -1.3270000000       -2.9302177605       16.7776216000
 N        0.2289984440       -3.8285738810       17.3659958000
 N       -1.3270000000       -2.9302177605       14.8749958000
Al        1.7849984440       -1.1335028245       19.2686216000
Al        0.2290000000       -0.2351467040       16.7776216000
 N        1.7849984440       -1.1335028245       17.3659958000
 N        0.2290000000       -0.2351467040       14.8749958000
 N       -1.3270000000       -2.9302177605       19.8569958000
 N        0.2290000000       -0.2351467040       19.8569958000
Al        0.2289984440        1.5615682321      -15.6053784000
Al       -1.3270000000        2.4599243526      -18.0963784000
 N        0.2289984440        1.5615682321      -17.5080042000
 N       -1.3270000000        2.4599243526      -19.9990042000
Al        1.7849984440        4.2566392887      -15.6053784000
Al        0.2290000000        5.1549954092      -18.0963784000
 N        1.7849984440        4.2566392887      -17.5080042000
 N        0.2290000000        5.1549954092      -19.9990042000
Al        0.2289984440        1.5615682321      -10.6233784000
Al       -1.3270000000        2.4599243526      -13.1143784000
 N        0.2289984440        1.5615682321      -12.5260042000
 N       -1.3270000000        2.4599243526      -15.0170042000
Al        1.7849984440        4.2566392887      -10.6233784000
Al        0.2290000000        5.1549954092      -13.1143784000
 N        1.7849984440        4.2566392887      -12.5260042000
 N        0.2290000000        5.1549954092      -15.0170042000
Ga        0.2289984440        1.5615682321       -5.6413784000
Ga       -1.3270000000        2.4599243526       -8.1323784000
 N        0.2289984440        1.5615682321       -7.5440042000
 N       -1.3270000000        2.4599243526      -10.0350042000
Ga        1.7849984440        4.2566392887       -5.6413784000
Ga        0.2290000000        5.1549954092       -8.1323784000
 N        1.7849984440        4.2566392887       -7.5440042000
 N        0.2290000000        5.1549954092      -10.0350042000
Ga        0.2289984440        1.5615682321       -0.6593784000
Ga       -1.3270000000        2.4599243526       -3.1503784000
 N        0.2289984440        1.5615682321       -2.5620042000
 N       -1.3270000000        2.4599243526       -5.0530042000
Ga        1.7849984440        4.2566392887       -0.6593784000
Ga        0.2290000000        5.1549954092       -3.1503784000
 N        1.7849984440        4.2566392887       -2.5620042000
 N        0.2290000000        5.1549954092       -5.0530042000
Ga        0.2289984440        1.5615682321        4.3226216000
Ga       -1.3270000000        2.4599243526        1.8316216000
 N        0.2289984440        1.5615682321        2.4199958000
 N       -1.3270000000        2.4599243526       -0.0710042000
Ga        1.7849984440        4.2566392887        4.3226216000
Ga        0.2290000000        5.1549954092        1.8316216000
 N        1.7849984440        4.2566392887        2.4199958000
 N        0.2290000000        5.1549954092       -0.0710042000
Ga        0.2289984440        1.5615682321        9.3046216000
Ga       -1.3270000000        2.4599243526        6.8136216000
 N        0.2289984440        1.5615682321        7.4019958000
 N       -1.3270000000        2.4599243526        4.9109958000
Al        1.7849984440        4.2566392887        9.3046216000
Ga        0.2290000000        5.1549954092        6.8136216000
 N        1.7849984440        4.2566392887        7.4019958000
 N        0.2290000000        5.1549954092        4.9109958000
Al        0.2289984440        1.5615682321       14.2866216000
Al       -1.3270000000        2.4599243526       11.7956216000
 N        0.2289984440        1.5615682321       12.3839958000
 N       -1.3270000000        2.4599243526        9.8929958000
Al        1.7849984440        4.2566392887       14.2866216000
Al        0.2290000000        5.1549954092       11.7956216000
 N        1.7849984440        4.2566392887       12.3839958000
 N        0.2290000000        5.1549954092        9.8929958000
Al        0.2289984440        1.5615682321       19.2686216000
Al       -1.3270000000        2.4599243526       16.7776216000
 N        0.2289984440        1.5615682321       17.3659958000
 N       -1.3270000000        2.4599243526       14.8749958000
Al        1.7849984440        4.2566392887       19.2686216000
Al        0.2290000000        5.1549954092       16.7776216000
 N        1.7849984440        4.2566392887       17.3659958000
 N        0.2290000000        5.1549954092       14.8749958000
 N       -1.3270000000        2.4599243526       19.8569958000
 N        0.2290000000        5.1549954092       19.8569958000
Al        0.2289984440        6.9517103453      -15.6053784000
Al       -1.3270000000        7.8500664658      -18.0963784000
 N        0.2289984440        6.9517103453      -17.5080042000
 N       -1.3270000000        7.8500664658      -19.9990042000
Al        1.7849984440        9.6467814018      -15.6053784000
Al        0.2290000000       10.5451375223      -18.0963784000
 N        1.7849984440        9.6467814018      -17.5080042000
 N        0.2290000000       10.5451375223      -19.9990042000
Al        0.2289984440        6.9517103453      -10.6233784000
Al       -1.3270000000        7.8500664658      -13.1143784000
 N        0.2289984440        6.9517103453      -12.5260042000
 N       -1.3270000000        7.8500664658      -15.0170042000
Al        1.7849984440        9.6467814018      -10.6233784000
Al        0.2290000000       10.5451375223      -13.1143784000
 N        1.7849984440        9.6467814018      -12.5260042000
 N        0.2290000000       10.5451375223      -15.0170042000
Ga        0.2289984440        6.9517103453       -5.6413784000
Al       -1.3270000000        7.8500664658       -8.1323784000
 N        0.2289984440        6.9517103453       -7.5440042000
 N       -1.3270000000        7.8500664658      -10.0350042000
Al        1.7849984440        9.6467814018       -5.6413784000
Al        0.2290000000       10.5451375223       -8.1323784000
 N        1.7849984440        9.6467814018       -7.5440042000
 N        0.2290000000       10.5451375223      -10.0350042000
Ga        0.2289984440        6.9517103453       -0.6593784000
Ga       -1.3270000000        7.8500664658       -3.1503784000
 N        0.2289984440        6.9517103453       -2.5620042000
 N       -1.3270000000        7.8500664658       -5.0530042000
Ga        1.7849984440        9.6467814018       -0.6593784000
Al        0.2290000000       10.5451375223       -3.1503784000
 N        1.7849984440        9.6467814018       -2.5620042000
 N        0.2290000000       10.5451375223       -5.0530042000
Ga        0.2289984440        6.9517103453        4.3226216000
Ga       -1.3270000000        7.8500664658        1.8316216000
 N        0.2289984440        6.9517103453        2.4199958000
 N       -1.3270000000        7.8500664658       -0.0710042000
Al        1.7849984440        9.6467814018        4.3226216000
Al        0.2290000000       10.5451375223        1.8316216000
 N        1.7849984440        9.6467814018        2.4199958000
 N        0.2290000000       10.5451375223       -0.0710042000
Al        0.2289984440        6.9517103453        9.3046216000
Al       -1.3270000000        7.8500664658        6.8136216000
 N        0.2289984440        6.9517103453        7.4019958000
 N       -1.3270000000        7.8500664658        4.9109958000
Al        1.7849984440        9.6467814018        9.3046216000
Al        0.2290000000       10.5451375223        6.8136216000
 N        1.7849984440        9.6467814018        7.4019958000
 N        0.2290000000       10.5451375223        4.9109958000
Al        0.2289984440        6.9517103453       14.2866216000
Al       -1.3270000000        7.8500664658       11.7956216000
 N        0.2289984440        6.9517103453       12.3839958000
 N       -1.3270000000        7.8500664658        9.8929958000
Al        1.7849984440        9.6467814018       14.2866216000
Al        0.2290000000       10.5451375223       11.7956216000
 N        1.7849984440        9.6467814018       12.3839958000
 N        0.2290000000       10.5451375223        9.8929958000
Al        0.2289984440        6.9517103453       19.2686216000
Al       -1.3270000000        7.8500664658       16.7776216000
 N        0.2289984440        6.9517103453       17.3659958000
 N       -1.3270000000        7.8500664658       14.8749958000
Al        1.7849984440        9.6467814018       19.2686216000
Al        0.2290000000       10.5451375223       16.7776216000
 N        1.7849984440        9.6467814018       17.3659958000
 N        0.2290000000       10.5451375223       14.8749958000
 N       -1.3270000000        7.8500664658       19.8569958000
 N        0.2290000000       10.5451375223       19.8569958000
Al        0.2289984440       12.3418524584      -15.6053784000
Al       -1.3270000000       13.2402085789      -18.0963784000
 N        0.2289984440       12.3418524584      -17.5080042000
 N       -1.3270000000       13.2402085789      -19.9990042000
Al        1.7849984440       15.0369235150      -15.6053784000
Al        0.2290000000       15.9352796355      -18.0963784000
 N        1.7849984440       15.0369235150      -17.5080042000
 N        0.2290000000       15.9352796355      -19.9990042000
Al        0.2289984440       12.3418524584      -10.6233784000
Al       -1.3270000000       13.2402085789      -13.1143784000
 N        0.2289984440       12.3418524584      -12.5260042000
 N       -1.3270000000       13.2402085789      -15.0170042000
Al        1.7849984440       15.0369235150      -10.6233784000
Al        0.2290000000       15.9352796355      -13.1143784000
 N        1.7849984440       15.0369235150      -12.5260042000
 N        0.2290000000       15.9352796355      -15.0170042000
Al        0.2289984440       12.3418524584       -5.6413784000
Al       -1.3270000000       13.2402085789       -8.1323784000
 N        0.2289984440       12.3418524584       -7.5440042000
 N       -1.3270000000       13.2402085789      -10.0350042000
Al        1.7849984440       15.0369235150       -5.6413784000
Al        0.2290000000       15.9352796355       -8.1323784000
 N        1.7849984440       15.0369235150       -7.5440042000
 N        0.2290000000       15.9352796355      -10.0350042000
Al        0.2289984440       12.3418524584       -0.6593784000
Al       -1.3270000000       13.2402085789       -3.1503784000
 N        0.2289984440       12.3418524584       -2.5620042000
 N       -1.3270000000       13.2402085789       -5.0530042000
Al        1.7849984440       15.0369235150       -0.6593784000
Al        0.2290000000       15.9352796355       -3.1503784000
 N        1.7849984440       15.0369235150       -2.5620042000
 N        0.2290000000       15.9352796355       -5.0530042000
Al        0.2289984440       12.3418524584        4.3226216000
Al       -1.3270000000       13.2402085789        1.8316216000
 N        0.2289984440       12.3418524584        2.4199958000
 N       -1.3270000000       13.2402085789       -0.0710042000
Al        1.7849984440       15.0369235150        4.3226216000
Al        0.2290000000       15.9352796355        1.8316216000
 N        1.7849984440       15.0369235150        2.4199958000
 N        0.2290000000       15.9352796355       -0.0710042000
Al        0.2289984440       12.3418524584        9.3046216000
Al       -1.3270000000       13.2402085789        6.8136216000
 N        0.2289984440       12.3418524584        7.4019958000
 N       -1.3270000000       13.2402085789        4.9109958000
Al        1.7849984440       15.0369235150        9.3046216000
Al        0.2290000000       15.9352796355        6.8136216000
 N        1.7849984440       15.0369235150        7.4019958000
 N        0.2290000000       15.9352796355        4.9109958000
Al        0.2289984440       12.3418524584       14.2866216000
Al       -1.3270000000       13.2402085789       11.7956216000
 N        0.2289984440       12.3418524584       12.3839958000
 N       -1.3270000000       13.2402085789        9.8929958000
Al        1.7849984440       15.0369235150       14.2866216000
Al        0.2290000000       15.9352796355       11.7956216000
 N        1.7849984440       15.0369235150       12.3839958000
 N        0.2290000000       15.9352796355        9.8929958000
Al        0.2289984440       12.3418524584       19.2686216000
Al       -1.3270000000       13.2402085789       16.7776216000
 N        0.2289984440       12.3418524584       17.3659958000
 N       -1.3270000000       13.2402085789       14.8749958000
Al        1.7849984440       15.0369235150       19.2686216000
Al        0.2290000000       15.9352796355       16.7776216000
 N        1.7849984440       15.0369235150       17.3659958000
 N        0.2290000000       15.9352796355       14.8749958000
 N       -1.3270000000       13.2402085789       19.8569958000
 N        0.2290000000       15.9352796355       19.8569958000
Al        0.2289984440       17.7319945716      -15.6053784000
Al       -1.3270000000       18.6303506921      -18.0963784000
 N        0.2289984440       17.7319945716      -17.5080042000
 N       -1.3270000000       18.6303506921      -19.9990042000
Al        0.2289984440       17.7319945716      -10.6233784000
Al       -1.3270000000       18.6303506921      -13.1143784000
 N        0.2289984440       17.7319945716      -12.5260042000
 N       -1.3270000000       18.6303506921      -15.0170042000
Al        0.2289984440       17.7319945716       -5.6413784000
Al       -1.3270000000       18.6303506921       -8.1323784000
 N        0.2289984440       17.7319945716       -7.5440042000
 N       -1.3270000000       18.6303506921      -10.0350042000
Al        0.2289984440       17.7319945716       -0.6593784000
Al       -1.3270000000       18.6303506921       -3.1503784000
 N        0.2289984440       17.7319945716       -2.5620042000
 N       -1.3270000000       18.6303506921       -5.0530042000
Al        0.2289984440       17.7319945716        4.3226216000
Al       -1.3270000000       18.6303506921        1.8316216000
 N        0.2289984440       17.7319945716        2.4199958000
 N       -1.3270000000       18.6303506921       -0.0710042000
Al        0.2289984440       17.7319945716        9.3046216000
Al       -1.3270000000       18.6303506921        6.8136216000
 N        0.2289984440       17.7319945716        7.4019958000
 N       -1.3270000000       18.6303506921        4.9109958000
Al        0.2289984440       17.7319945716       14.2866216000
Al       -1.3270000000       18.6303506921       11.7956216000
 N        0.2289984440       17.7319945716       12.3839958000
 N       -1.3270000000       18.6303506921        9.8929958000
Al        0.2289984440       17.7319945716       19.2686216000
Al       -1.3270000000       18.6303506921       16.7776216000
 N        0.2289984440       17.7319945716       17.3659958000
 N       -1.3270000000       18.6303506921       14.8749958000
 N       -1.3270000000       18.6303506921       19.8569958000
Al        3.3409984440      -19.9990002205      -15.6053784000
Al        1.7850000000      -19.1006441000      -18.0963784000
 N        3.3409984440      -19.9990002205      -17.5080042000
 N        1.7850000000      -19.1006441000      -19.9990042000
Al        4.8969984440      -17.3039291639      -15.6053784000
Al        3.3410000000      -16.4055730434      -18.0963784000
 N        4.8969984440      -17.3039291639      -17.5080042000
 N        3.3410000000      -16.4055730434      -19.9990042000
Al        3.3409984440      -19.9990002205      -10.6233784000
Al        1.7850000000      -19.1006441000      -13.1143784000
 N        3.3409984440      -19.9990002205      -12.5260042000
 N        1.7850000000      -19.1006441000      -15.0170042000
Al        4.8969984440      -17.3039291639      -10.6233784000
Al        3.3410000000      -16.4055730434      -13.1143784000
 N        4.8969984440      -17.3039291639      -12.5260042000
 N        3.3410000000      -16.4055730434      -15.0170042000
Al        3.3409984440      -19.9990002205       -5.6413784000
Al        1.7850000000      -19.1006441000       -8.1323784000
 N        3.3409984440      -19.9990002205       -7.5440042000
 N        1.7850000000      -19.1006441000      -10.0350042000
Al        4.8969984440      -17.3039291639       -5.6413784000
Al        3.3410000000      -16.4055730434       -8.1323784000
 N        4.8969984440      -17.3039291639       -7.5440042000
 N        3.3410000000      -16.4055730434      -10.0350042000
Al        3.3409984440      -19.9990002205       -0.6593784000
Al        1.7850000000      -19.1006441000       -3.1503784000
 N        3.3409984440      -19.9990002205       -2.5620042000
 N        1.7850000000      -19.1006441000       -5.0530042000
Al        4.8969984440      -17.3039291639       -0.6593784000
Al        3.3410000000      -16.4055730434       -3.1503784000
 N        4.8969984440      -17.3039291639       -2.5620042000
 N        3.3410000000      -16.4055730434       -5.0530042000
Al        3.3409984440      -19.9990002205        4.3226216000
Al        1.7850000000      -19.1006441000        1.8316216000
 N        3.3409984440      -19.9990002205        2.4199958000
 N        1.7850000000      -19.1006441000       -0.0710042000
Al        4.8969984440      -17.3039291639        4.3226216000
Al        3.3410000000      -16.4055730434        1.8316216000
 N        4.8969984440      -17.3039291639        2.4199958000
 N        3.3410000000      -16.4055730434       -0.0710042000
Al        3.3409984440      -19.9990002205        9.3046216000
Al        1.7850000000      -19.1006441000        6.8136216000
 N        3.3409984440      -19.9990002205        7.4019958000
 N        1.7850000000      -19.1006441000        4.9109958000
Al        4.8969984440      -17.3039291639        9.3046216000
Al        3.3410000000      -16.4055730434        6.8136216000
 N        4.8969984440      -17.3039291639        7.4019958000
 N        3.3410000000      -16.4055730434        4.9109958000
Al        3.3409984440      -19.9990002205       14.2866216000
Al        1.7850000000      -19.1006441000       11.7956216000
 N        3.3409984440      -19.9990002205       12.3839958000
 N        1.7850000000      -19.1006441000        9.8929958000
Al        4.8969984440      -17.3039291639       14.2866216000
Al        3.3410000000      -16.4055730434       11.7956216000
 N        4.8969984440      -17.3039291639       12.3839958000
 N        3.3410000000      -16.4055730434        9.8929958000
Al        3.3409984440      -19.9990002205       19.2686216000
Al        1.7850000000      -19.1006441000       16.7776216000
 N        3.3409984440      -19.9990002205       17.3659958000
 N        1.7850000000      -19.1006441000       14.8749958000
Al        4.8969984440      -17.3039291639       19.2686216000
Al        3.3410000000      -16.4055730434       16.7776216000
 N        4.8969984440      -17.3039291639       17.3659958000
 N        3.3410000000      -16.4055730434       14.8749958000
 N        1.7850000000      -19.1006441000       19.8569958000
 N        3.3410000000      -16.4055730434       19.8569958000
Al        3.3409984440      -14.6088581073      -15.6053784000
Al        1.7850000000      -13.7105019868      -18.0963784000
 N        3.3409984440      -14.6088581073      -17.5080042000
 N        1.7850000000      -13.7105019868      -19.9990042000
Al        4.8969984440      -11.9137870508      -15.6053784000
Al        3.3410000000      -11.0154309303      -18.0963784000
 N        4.8969984440      -11.9137870508      -17.5080042000
 N        3.3410000000      -11.0154309303      -19.9990042000
Al        3.3409984440      -14.6088581073      -10.6233784000
Al        1.7850000000      -13.7105019868      -13.1143784000
 N        3.3409984440      -14.6088581073      -12.5260042000
 N        1.7850000000      -13.7105019868      -15.0170042000
Al        4.8969984440      -11.9137870508      -10.6233784000
Al        3.3410000000      -11.0154309303      -13.1143784000
 N        4.8969984440      -11.9137870508      -12.5260042000
 N        3.3410000000      -11.0154309303      -15.0170042000
Al        3.3409984440      -14.6088581073       -5.6413784000
Al        1.7850000000      -13.7105019868       -8.1323784000
 N        3.3409984440      -14.6088581073       -7.5440042000
 N        1.7850000000      -13.7105019868      -10.0350042000
Al        4.8969984440      -11.9137870508       -5.6413784000
Al        3.3410000000      -11.0154309303       -8.1323784000
 N        4.8969984440      -11.9137870508       -7.5440042000
 N        3.3410000000      -11.0154309303      -10.0350042000
Al        3.3409984440      -14.6088581073       -0.6593784000
Al        1.7850000000      -13.7105019868       -3.1503784000
 N        3.3409984440      -14.6088581073       -2.5620042000
 N        1.7850000000      -13.7105019868       -5.0530042000
Al        4.8969984440      -11.9137870508       -0.6593784000
Al        3.3410000000      -11.0154309303       -3.1503784000
 N        4.8969984440      -11.9137870508       -2.5620042000
 N        3.3410000000      -11.0154309303       -5.0530042000
Al        3.3409984440      -14.6088581073        4.3226216000
Al        1.7850000000      -13.7105019868        1.8316216000
 N        3.3409984440      -14.6088581073        2.4199958000
 N        1.7850000000      -13.7105019868       -0.0710042000
Al        4.8969984440      -11.9137870508        4.3226216000
Al        3.3410000000      -11.0154309303        1.8316216000
 N        4.8969984440      -11.9137870508        2.4199958000
 N        3.3410000000      -11.0154309303       -0.0710042000
Al        3.3409984440      -14.6088581073        9.3046216000
Al        1.7850000000      -13.7105019868        6.8136216000
 N        3.3409984440      -14.6088581073        7.4019958000
 N        1.7850000000      -13.7105019868        4.9109958000
Al        4.8969984440      -11.9137870508        9.3046216000
Al        3.3410000000      -11.0154309303        6.8136216000
 N        4.8969984440      -11.9137870508        7.4019958000
 N        3.3410000000      -11.0154309303        4.9109958000
Al        3.3409984440      -14.6088581073       14.2866216000
Al        1.7850000000      -13.7105019868       11.7956216000
 N        3.3409984440      -14.6088581073       12.3839958000
 N        1.7850000000      -13.7105019868        9.8929958000
Al        4.8969984440      -11.9137870508       14.2866216000
Al        3.3410000000      -11.0154309303       11.7956216000
 N        4.8969984440      -11.9137870508       12.3839958000
 N        3.3410000000      -11.0154309303        9.8929958000
Al        3.3409984440      -14.6088581073       19.2686216000
Al        1.7850000000      -13.7105019868       16.7776216000
 N        3.3409984440      -14.6088581073       17.3659958000
 N        1.7850000000      -13.7105019868       14.8749958000
Al        4.8969984440      -11.9137870508       19.2686216000
Al        3.3410000000      -11.0154309303       16.7776216000
 N        4.8969984440      -11.9137870508       17.3659958000
 N        3.3410000000      -11.0154309303       14.8749958000
 N        1.7850000000      -13.7105019868       19.8569958000
 N        3.3410000000      -11.0154309303       19.8569958000
Al        3.3409984440       -9.2187159942      -15.6053784000
Al        1.7850000000       -8.3203598737      -18.0963784000
 N        3.3409984440       -9.2187159942      -17.5080042000
 N        1.7850000000       -8.3203598737      -19.9990042000
Al        4.8969984440       -6.5236449376      -15.6053784000
Al        3.3410000000       -5.6252888171      -18.0963784000
 N        4.8969984440       -6.5236449376      -17.5080042000
 N        3.3410000000       -5.6252888171      -19.9990042000
Al        3.3409984440       -9.2187159942      -10.6233784000
Al        1.7850000000       -8.3203598737      -13.1143784000
 N        3.3409984440       -9.2187159942      -12.5260042000
 N        1.7850000000       -8.3203598737      -15.0170042000
Al        4.8969984440       -6.5236449376      -10.6233784000
Al        3.3410000000       -5.6252888171      -13.1143784000
 N        4.8969984440       -6.5236449376      -12.5260042000
 N        3.3410000000       -5.6252888171      -15.0170042000
Al        3.3409984440       -9.2187159942       -5.6413784000
Al        1.7850000000       -8.3203598737       -8.1323784000
 N        3.3409984440       -9.2187159942       -7.5440042000
 N        1.7850000000       -8.3203598737      -10.0350042000
Ga        4.8969984440       -6.5236449376       -5.6413784000
Al        3.3410000000       -5.6252888171       -8.1323784000
 N        4.8969984440       -6.5236449376       -7.5440042000
 N        3.3410000000       -5.6252888171      -10.0350042000
Ga        3.3409984440       -9.2187159942       -0.6593784000
Ga        1.7850000000       -8.3203598737       -3.1503784000
 N        3.3409984440       -9.2187159942       -2.5620042000
 N        1.7850000000       -8.3203598737       -5.0530042000
Ga        4.8969984440       -6.5236449376       -0.6593784000
Ga        3.3410000000       -5.6252888171       -3.1503784000
 N        4.8969984440       -6.5236449376       -2.5620042000
 N        3.3410000000       -5.6252888171       -5.0530042000
Al        3.3409984440       -9.2187159942        4.3226216000
Ga        1.7850000000       -8.3203598737        1.8316216000
 N        3.3409984440       -9.2187159942        2.4199958000
 N        1.7850000000       -8.3203598737       -0.0710042000
Ga        4.8969984440       -6.5236449376        4.3226216000
Ga        3.3410000000       -5.6252888171        1.8316216000
 N        4.8969984440       -6.5236449376        2.4199958000
 N        3.3410000000       -5.6252888171       -0.0710042000
Al        3.3409984440       -9.2187159942        9.3046216000
Al        1.7850000000       -8.3203598737        6.8136216000
 N        3.3409984440       -9.2187159942        7.4019958000
 N        1.7850000000       -8.3203598737        4.9109958000
Al        4.8969984440       -6.5236449376        9.3046216000
Ga        3.3410000000       -5.6252888171        6.8136216000
 N        4.8969984440       -6.5236449376        7.4019958000
 N        3.3410000000       -5.6252888171        4.9109958000
Al        3.3409984440       -9.2187159942       14.2866216000
Al        1.7850000000       -8.3203598737       11.7956216000
 N        3.3409984440       -9.2187159942       12.3839958000
 N        1.7850000000       -8.3203598737        9.8929958000
Al        4.8969984440       -6.5236449376       14.2866216000
Al        3.3410000000       -5.6252888171       11.7956216000
 N        4.8969984440       -6.5236449376       12.3839958000
 N        3.3410000000       -5.6252888171        9.8929958000
Al        3.3409984440       -9.2187159942       19.2686216000
Al        1.7850000000       -8.3203598737       16.7776216000
 N        3.3409984440       -9.2187159942       17.3659958000
 N        1.7850000000       -8.3203598737       14.8749958000
Al        4.8969984440       -6.5236449376       19.2686216000
Al        3.3410000000       -5.6252888171       16.7776216000
 N        4.8969984440       -6.5236449376       17.3659958000
 N        3.3410000000       -5.6252888171       14.8749958000
 N        1.7850000000       -8.3203598737       19.8569958000
 N        3.3410000000       -5.6252888171       19.8569958000
Al        3.3409984440       -3.8285738810      -15.6053784000
Al        1.7850000000       -2.9302177605      -18.0963784000
 N        3.3409984440       -3.8285738810      -17.5080042000
 N        1.7850000000       -2.9302177605      -19.9990042000
Al        4.8969984440       -1.1335028245      -15.6053784000
Al        3.3410000000       -0.2351467040      -18.0963784000
 N        4.8969984440       -1.1335028245      -17.5080042000
 N        3.3410000000       -0.2351467040      -19.9990042000
Al        3.3409984440       -3.8285738810      -10.6233784000
Al        1.7850000000       -2.9302177605      -13.1143784000
 N        3.3409984440       -3.8285738810      -12.5260042000
 N        1.7850000000       -2.9302177605      -15.0170042000
Al        4.8969984440       -1.1335028245      -10.6233784000
Al        3.3410000000       -0.2351467040      -13.1143784000
 N        4.8969984440       -1.1335028245      -12.5260042000
 N        3.3410000000       -0.2351467040      -15.0170042000
Ga        3.3409984440       -3.8285738810       -5.6413784000
Ga        1.7850000000       -2.9302177605       -8.1323784000
 N        3.3409984440       -3.8285738810       -7.5440042000
 N        1.7850000000       -2.9302177605      -10.0350042000
Ga        4.8969984440       -1.1335028245       -5.6413784000
Ga        3.3410000000       -0.2351467040       -8.1323784000
 N        4.8969984440       -1.1335028245       -7.5440042000
 N        3.3410000000       -0.2351467040      -10.0350042000
Ga        3.3409984440       -3.8285738810       -0.6593784000
Ga        1.7850000000       -2.9302177605       -3.1503784000
 N        3.3409984440       -3.8285738810       -2.5620042000
 N        1.7850000000       -2.9302177605       -5.0530042000
Ga        4.8969984440       -1.1335028245       -0.6593784000
Ga        3.3410000000       -0.2351467040       -3.1503784000
 N        4.8969984440       -1.1335028245       -2.5620042000
 N        3.3410000000       -0.2351467040       -5.0530042000
Ga        3.3409984440       -3.8285738810        4.3226216000
Ga        1.7850000000       -2.9302177605        1.8316216000
 N        3.3409984440       -3.8285738810        2.4199958000
 N        1.7850000000       -2.9302177605       -0.0710042000
Ga        4.8969984440       -1.1335028245        4.3226216000
Ga        3.3410000000       -0.2351467040        1.8316216000
 N        4.8969984440       -1.1335028245        2.4199958000
 N        3.3410000000       -0.2351467040       -0.0710042000
Al        3.3409984440       -3.8285738810        9.3046216000
Ga        1.7850000000       -2.9302177605        6.8136216000
 N        3.3409984440       -3.8285738810        7.4019958000
 N        1.7850000000       -2.9302177605        4.9109958000
Al        4.8969984440       -1.1335028245        9.3046216000
Ga        3.3410000000       -0.2351467040        6.8136216000
 N        4.8969984440       -1.1335028245        7.4019958000
 N        3.3410000000       -0.2351467040        4.9109958000
Al        3.3409984440       -3.8285738810       14.2866216000
Al        1.7850000000       -2.9302177605       11.7956216000
 N        3.3409984440       -3.8285738810       12.3839958000
 N        1.7850000000       -2.9302177605        9.8929958000
Al        4.8969984440       -1.1335028245       14.2866216000
Al        3.3410000000       -0.2351467040       11.7956216000
 N        4.8969984440       -1.1335028245       12.3839958000
 N        3.3410000000       -0.2351467040        9.8929958000
Al        3.3409984440       -3.8285738810       19.2686216000
Al        1.7850000000       -2.9302177605       16.7776216000
 N        3.3409984440       -3.8285738810       17.3659958000
 N        1.7850000000       -2.9302177605       14.8749958000
Al        4.8969984440       -1.1335028245       19.2686216000
Al        3.3410000000       -0.2351467040       16.7776216000
 N        4.8969984440       -1.1335028245       17.3659958000
 N        3.3410000000       -0.2351467040       14.8749958000
 N        1.7850000000       -2.9302177605       19.8569958000
 N        3.3410000000       -0.2351467040       19.8569958000
Al        3.3409984440        1.5615682321      -15.6053784000
Al        1.7850000000        2.4599243526      -18.0963784000
 N        3.3409984440        1.5615682321      -17.5080042000
 N        1.7850000000        2.4599243526      -19.9990042000
Al        4.8969984440        4.2566392887      -15.6053784000
Al        3.3410000000        5.1549954092      -18.0963784000
 N        4.8969984440        4.2566392887      -17.5080042000
 N        3.3410000000        5.1549954092      -19.9990042000
Al        3.3409984440        1.5615682321      -10.6233784000
Al        1.7850000000        2.4599243526      -13.1143784000
 N        3.3409984440        1.5615682321      -12.5260042000
 N        1.7850000000        2.4599243526      -15.0170042000
Al        4.8969984440        4.2566392887      -10.6233784000
Al        3.3410000000        5.1549954092      -13.1143784000
 N        4.8969984440        4.2566392887      -12.5260042000
 N        3.3410000000        5.1549954092      -15.0170042000
Ga        3.3409984440        1.5615682321       -5.6413784000
Ga        1.7850000000        2.4599243526       -8.1323784000
 N        3.3409984440        1.5615682321       -7.5440042000
 N        1.7850000000        2.4599243526      -10.0350042000
Ga        4.8969984440        4.2566392887       -5.6413784000
Al        3.3410000000        5.1549954092       -8.1323784000
 N        4.8969984440        4.2566392887       -7.5440042000
 N        3.3410000000        5.1549954092      -10.0350042000
Ga        3.3409984440        1.5615682321       -0.6593784000
Ga        1.7850000000        2.4599243526       -3.1503784000
 N        3.3409984440        1.5615682321       -2.5620042000
 N        1.7850000000        2.4599243526       -5.0530042000
Ga        4.8969984440        4.2566392887       -0.6593784000
Ga        3.3410000000        5.1549954092       -3.1503784000
 N        4.8969984440        4.2566392887       -2.5620042000
 N        3.3410000000        5.1549954092       -5.0530042000
Ga        3.3409984440        1.5615682321        4.3226216000
Ga        1.7850000000        2.4599243526        1.8316216000
 N        3.3409984440        1.5615682321        2.4199958000
 N        1.7850000000        2.4599243526       -0.0710042000
Ga        4.8969984440        4.2566392887        4.3226216000
Ga        3.3410000000        5.1549954092        1.8316216000
 N        4.8969984440        4.2566392887        2.4199958000
 N        3.3410000000        5.1549954092       -0.0710042000
Al        3.3409984440        1.5615682321        9.3046216000
Ga        1.7850000000        2.4599243526        6.8136216000
 N        3.3409984440        1.5615682321        7.4019958000
 N        1.7850000000        2.4599243526        4.9109958000
Al        4.8969984440        4.2566392887        9.3046216000
Ga        3.3410000000        5.1549954092        6.8136216000
 N        4.8969984440        4.2566392887        7.4019958000
 N        3.3410000000        5.1549954092        4.9109958000
Al        3.3409984440        1.5615682321       14.2866216000
Al        1.7850000000        2.4599243526       11.7956216000
 N        3.3409984440        1.5615682321       12.3839958000
 N        1.7850000000        2.4599243526        9.8929958000
Al        4.8969984440        4.2566392887       14.2866216000
Al        3.3410000000        5.1549954092       11.7956216000
 N        4.8969984440        4.2566392887       12.3839958000
 N        3.3410000000        5.1549954092        9.8929958000
Al        3.3409984440        1.5615682321       19.2686216000
Al        1.7850000000        2.4599243526       16.7776216000
 N        3.3409984440        1.5615682321       17.3659958000
 N        1.7850000000        2.4599243526       14.8749958000
Al        4.8969984440        4.2566392887       19.2686216000
Al        3.3410000000        5.1549954092       16.7776216000
 N        4.8969984440        4.2566392887       17.3659958000
 N        3.3410000000        5.1549954092       14.8749958000
 N        1.7850000000        2.4599243526       19.8569958000
 N        3.3410000000        5.1549954092       19.8569958000
Al        3.3409984440        6.9517103453      -15.6053784000
Al        1.7850000000        7.8500664658      -18.0963784000
 N        3.3409984440        6.9517103453      -17.5080042000
 N        1.7850000000        7.8500664658      -19.9990042000
Al        4.8969984440        9.6467814018      -15.6053784000
Al        3.3410000000       10.5451375223      -18.0963784000
 N        4.8969984440        9.6467814018      -17.5080042000
 N        3.3410000000       10.5451375223      -19.9990042000
Al        3.3409984440        6.9517103453      -10.6233784000
Al        1.7850000000        7.8500664658      -13.1143784000
 N        3.3409984440        6.9517103453      -12.5260042000
 N        1.7850000000        7.8500664658      -15.0170042000
Al        4.8969984440        9.6467814018      -10.6233784000
Al        3.3410000000       10.5451375223      -13.1143784000
 N        4.8969984440        9.6467814018      -12.5260042000
 N        3.3410000000       10.5451375223      -15.0170042000
Ga        3.3409984440        6.9517103453       -5.6413784000
Al        1.7850000000        7.8500664658       -8.1323784000
 N        3.3409984440        6.9517103453       -7.5440042000
 N        1.7850000000        7.8500664658      -10.0350042000
Al        4.8969984440        9.6467814018       -5.6413784000
Al        3.3410000000       10.5451375223       -8.1323784000
 N        4.8969984440        9.6467814018       -7.5440042000
 N        3.3410000000       10.5451375223      -10.0350042000
Ga        3.3409984440        6.9517103453       -0.6593784000
Ga        1.7850000000        7.8500664658       -3.1503784000
 N        3.3409984440        6.9517103453       -2.5620042000
 N        1.7850000000        7.8500664658       -5.0530042000
Al        4.8969984440        9.6467814018       -0.6593784000
Al        3.3410000000       10.5451375223       -3.1503784000
 N        4.8969984440        9.6467814018       -2.5620042000
 N        3.3410000000       10.5451375223       -5.0530042000
Ga        3.3409984440        6.9517103453        4.3226216000
Ga        1.7850000000        7.8500664658        1.8316216000
 N        3.3409984440        6.9517103453        2.4199958000
 N        1.7850000000        7.8500664658       -0.0710042000
Al        4.8969984440        9.6467814018        4.3226216000
Al        3.3410000000       10.5451375223        1.8316216000
 N        4.8969984440        9.6467814018        2.4199958000
 N        3.3410000000       10.5451375223       -0.0710042000
Al        3.3409984440        6.9517103453        9.3046216000
Al        1.7850000000        7.8500664658        6.8136216000
 N        3.3409984440        6.9517103453        7.4019958000
 N        1.7850000000        7.8500664658        4.9109958000
Al        4.8969984440        9.6467814018        9.3046216000
Al        3.3410000000       10.5451375223        6.8136216000
 N        4.8969984440        9.6467814018        7.4019958000
 N        3.3410000000       10.5451375223        4.9109958000
Al        3.3409984440        6.9517103453       14.2866216000
Al        1.7850000000        7.8500664658       11.7956216000
 N        3.3409984440        6.9517103453       12.3839958000
 N        1.7850000000        7.8500664658        9.8929958000
Al        4.8969984440        9.6467814018       14.2866216000
Al        3.3410000000       10.5451375223       11.7956216000
 N        4.8969984440        9.6467814018       12.3839958000
 N        3.3410000000       10.5451375223        9.8929958000
Al        3.3409984440        6.9517103453       19.2686216000
Al        1.7850000000        7.8500664658       16.7776216000
 N        3.3409984440        6.9517103453       17.3659958000
 N        1.7850000000        7.8500664658       14.8749958000
Al        4.8969984440        9.6467814018       19.2686216000
Al        3.3410000000       10.5451375223       16.7776216000
 N        4.8969984440        9.6467814018       17.3659958000
 N        3.3410000000       10.5451375223       14.8749958000
 N        1.7850000000        7.8500664658       19.8569958000
 N        3.3410000000       10.5451375223       19.8569958000
Al        3.3409984440       12.3418524584      -15.6053784000
Al        1.7850000000       13.2402085789      -18.0963784000
 N        3.3409984440       12.3418524584      -17.5080042000
 N        1.7850000000       13.2402085789      -19.9990042000
Al        4.8969984440       15.0369235150      -15.6053784000
Al        3.3410000000       15.9352796355      -18.0963784000
 N        4.8969984440       15.0369235150      -17.5080042000
 N        3.3410000000       15.9352796355      -19.9990042000
Al        3.3409984440       12.3418524584      -10.6233784000
Al        1.7850000000       13.2402085789      -13.1143784000
 N        3.3409984440       12.3418524584      -12.5260042000
 N        1.7850000000       13.2402085789      -15.0170042000
Al        4.8969984440       15.0369235150      -10.6233784000
Al        3.3410000000       15.9352796355      -13.1143784000
 N        4.8969984440       15.0369235150      -12.5260042000
 N        3.3410000000       15.9352796355      -15.0170042000
Al        3.3409984440       12.3418524584       -5.6413784000
Al        1.7850000000       13.2402085789       -8.1323784000
 N        3.3409984440       12.3418524584       -7.5440042000
 N        1.7850000000       13.2402085789      -10.0350042000
Al        4.8969984440       15.0369235150       -5.6413784000
Al        3.3410000000       15.9352796355       -8.1323784000
 N        4.8969984440       15.0369235150       -7.5440042000
 N        3.3410000000       15.9352796355      -10.0350042000
Al        3.3409984440       12.3418524584       -0.6593784000
Al        1.7850000000       13.2402085789       -3.1503784000
 N        3.3409984440       12.3418524584       -2.5620042000
 N        1.7850000000       13.2402085789       -5.0530042000
Al        4.8969984440       15.0369235150       -0.6593784000
Al        3.3410000000       15.9352796355       -3.1503784000
 N        4.8969984440       15.0369235150       -2.5620042000
 N        3.3410000000       15.9352796355       -5.0530042000
Al        3.3409984440       12.3418524584        4.3226216000
Al        1.7850000000       13.2402085789        1.8316216000
 N        3.3409984440       12.3418524584        2.4199958000
 N        1.7850000000       13.2402085789       -0.0710042000
Al        4.8969984440       15.0369235150        4.3226216000
Al        3.3410000000       15.9352796355        1.8316216000
 N        4.8969984440       15.0369235150        2.4199958000
 N        3.3410000000       15.9352796355       -0.0710042000
Al        3.3409984440       12.3418524584        9.3046216000
Al        1.7850000000       13.2402085789        6.8136216000
 N        3.3409984440       12.3418524584        7.4019958000
 N        1.7850000000       13.2402085789        4.9109958000
Al        4.8969984440       15.0369235150        9.3046216000
Al        3.3410000000       15.9352796355        6.8136216000
 N        4.8969984440       15.0369235150        7.4019958000
 N        3.3410000000       15.9352796355        4.9109958000
Al        3.3409984440       12.3418524584       14.2866216000
Al        1.7850000000       13.2402085789       11.7956216000
 N        3.3409984440       12.3418524584       12.3839958000
 N        1.7850000000       13.2402085789        9.8929958000
Al        4.8969984440       15.0369235150       14.2866216000
Al        3.3410000000       15.9352796355       11.7956216000
 N        4.8969984440       15.0369235150       12.3839958000
 N        3.3410000000       15.9352796355        9.8929958000
Al        3.3409984440       12.3418524584       19.2686216000
Al        1.7850000000       13.2402085789       16.7776216000
 N        3.3409984440       12.3418524584       17.3659958000
 N        1.7850000000       13.2402085789       14.8749958000
Al        4.8969984440       15.0369235150       19.2686216000
Al        3.3410000000       15.9352796355       16.7776216000
 N        4.8969984440       15.0369235150       17.3659958000
 N        3.3410000000       15.9352796355       14.8749958000
 N        1.7850000000       13.2402085789       19.8569958000
 N        3.3410000000       15.9352796355       19.8569958000
Al        3.3409984440       17.7319945716      -15.6053784000
Al        1.7850000000       18.6303506921      -18.0963784000
 N        3.3409984440       17.7319945716      -17.5080042000
 N        1.7850000000       18.6303506921      -19.9990042000
Al        3.3409984440       17.7319945716      -10.6233784000
Al        1.7850000000       18.6303506921      -13.1143784000
 N        3.3409984440       17.7319945716      -12.5260042000
 N        1.7850000000       18.6303506921      -15.0170042000
Al        3.3409984440       17.7319945716       -5.6413784000
Al        1.7850000000       18.6303506921       -8.1323784000
 N        3.3409984440       17.7319945716       -7.5440042000
 N        1.7850000000       18.6303506921      -10.0350042000
Al        3.3409984440       17.7319945716       -0.6593784000
Al        1.7850000000       18.6303506921       -3.1503784000
 N        3.3409984440       17.7319945716       -2.5620042000
 N        1.7850000000       18.6303506921       -5.0530042000
Al        3.3409984440       17.7319945716        4.3226216000
Al        1.7850000000       18.6303506921        1.8316216000
 N        3.3409984440       17.7319945716        2.4199958000
 N        1.7850000000       18.6303506921       -0.0710042000
Al        3.3409984440       17.7319945716        9.3046216000
Al        1.7850000000       18.6303506921        6.8136216000
 N        3.3409984440       17.7319945716        7.4019958000
 N        1.7850000000       18.6303506921        4.9109958000
Al        3.3409984440       17.7319945716       14.2866216000
Al        1.7850000000       18.6303506921       11.7956216000
 N        3.3409984440       17.7319945716       12.3839958000
 N        1.7850000000       18.6303506921        9.8929958000
Al        3.3409984440       17.7319945716       19.2686216000
Al        1.7850000000       18.6303506921       16.7776216000
 N        3.3409984440       17.7319945716       17.3659958000
 N        1.7850000000       18.6303506921       14.8749958000
 N        1.7850000000       18.6303506921       19.8569958000
Al        6.4529984440      -19.9990002205      -15.6053784000
Al        4.8970000000      -19.1006441000      -18.0963784000
 N        6.4529984440      -19.9990002205      -17.5080042000
 N        4.8970000000      -19.1006441000      -19.9990042000
Al        8.0089984440      -17.3039291639      -15.6053784000
Al        6.4530000000      -16.4055730434      -18.0963784000
 N        8.0089984440      -17.3039291639      -17.5080042000
 N        6.4530000000      -16.4055730434      -19.9990042000
Al        6.4529984440      -19.9990002205      -10.6233784000
Al        4.8970000000      -19.1006441000      -13.1143784000
 N        6.4529984440      -19.9990002205      -12.5260042000
 N        4.8970000000      -19.1006441000      -15.0170042000
Al        8.0089984440      -17.3039291639      -10.6233784000
Al        6.4530000000      -16.4055730434      -13.1143784000
 N        8.0089984440      -17.3039291639      -12.5260042000
 N        6.4530000000      -16.4055730434      -15.0170042000
Al        6.4529984440      -19.9990002205       -5.6413784000
Al        4.8970000000      -19.1006441000       -8.1323784000
 N        6.4529984440      -19.9990002205       -7.5440042000
 N        4.8970000000      -19.1006441000      -10.0350042000
Al        8.0089984440      -17.3039291639       -5.6413784000
Al        6.4530000000      -16.4055730434       -8.1323784000
 N        8.0089984440      -17.3039291639       -7.5440042000
 N        6.4530000000      -16.4055730434      -10.0350042000
Al        6.4529984440      -19.9990002205       -0.6593784000
Al        4.8970000000      -19.1006441000       -3.1503784000
 N        6.4529984440      -19.9990002205       -2.5620042000
 N        4.8970000000      -19.1006441000       -5.0530042000
Al        8.0089984440      -17.3039291639       -0.6593784000
Al        6.4530000000      -16.4055730434       -3.1503784000
 N        8.0089984440      -17.3039291639       -2.5620042000
 N        6.4530000000      -16.4055730434       -5.0530042000
Al        6.4529984440      -19.9990002205        4.3226216000
Al        4.8970000000      -19.1006441000        1.8316216000
 N        6.4529984440      -19.9990002205        2.4199958000
 N        4.8970000000      -19.1006441000       -0.0710042000
Al        8.0089984440      -17.3039291639        4.3226216000
Al        6.4530000000      -16.4055730434        1.8316216000
 N        8.0089984440      -17.3039291639        2.4199958000
 N        6.4530000000      -16.4055730434       -0.0710042000
Al        6.4529984440      -19.9990002205        9.3046216000
Al        4.8970000000      -19.1006441000        6.8136216000
 N        6.4529984440      -19.9990002205        7.4019958000
 N        4.8970000000      -19.1006441000        4.9109958000
Al        8.0089984440      -17.3039291639        9.3046216000
Al        6.4530000000      -16.4055730434        6.8136216000
 N        8.0089984440      -17.3039291639        7.4019958000
 N        6.4530000000      -16.4055730434        4.9109958000
Al        6.4529984440      -19.9990002205       14.2866216000
Al        4.8970000000      -19.1006441000       11.7956216000
 N        6.4529984440      -19.9990002205       12.3839958000
 N        4.8970000000      -19.1006441000        9.8929958000
Al        8.0089984440      -17.3039291639       14.2866216000
Al        6.4530000000      -16.4055730434       11.7956216000
 N        8.0089984440      -17.3039291639       12.3839958000
 N        6.4530000000      -16.4055730434        9.8929958000
Al        6.4529984440      -19.9990002205       19.2686216000
Al        4.8970000000      -19.1006441000       16.7776216000
 N        6.4529984440      -19.9990002205       17.3659958000
 N        4.8970000000      -19.1006441000       14.8749958000
Al        8.0089984440      -17.3039291639       19.2686216000
Al        6.4530000000      -16.4055730434       16.7776216000
 N        8.0089984440      -17.3039291639       17.3659958000
 N        6.4530000000      -16.4055730434       14.8749958000
 N        4.8970000000      -19.1006441000       19.8569958000
 N        6.4530000000      -16.4055730434       19.8569958000
Al        6.4529984440      -14.6088581073      -15.6053784000
Al        4.8970000000      -13.7105019868      -18.0963784000
 N        6.4529984440      -14.6088581073      -17.5080042000
 N        4.8970000000      -13.7105019868      -19.9990042000
Al        8.0089984440      -11.9137870508      -15.6053784000
Al        6.4530000000      -11.0154309303      -18.0963784000
 N        8.0089984440      -11.9137870508      -17.5080042000
 N        6.4530000000      -11.0154309303      -19.9990042000
Al        6.4529984440      -14.6088581073      -10.6233784000
Al        4.8970000000      -13.7105019868      -13.1143784000
 N        6.4529984440      -14.6088581073      -12.5260042000
 N        4.8970000000      -13.7105019868      -15.0170042000
Al        8.0089984440      -11.9137870508      -10.6233784000
Al        6.4530000000      -11.0154309303      -13.1143784000
 N        8.0089984440      -11.9137870508      -12.5260042000
 N        6.4530000000      -11.0154309303      -15.0170042000
Al        6.4529984440      -14.6088581073       -5.6413784000
Al        4.8970000000      -13.7105019868       -8.1323784000
 N        6.4529984440      -14.6088581073       -7.5440042000
 N        4.8970000000      -13.7105019868      -10.0350042000
Al        8.0089984440      -11.9137870508       -5.6413784000
Al        6.4530000000      -11.0154309303       -8.1323784000
 N        8.0089984440      -11.9137870508       -7.5440042000
 N        6.4530000000      -11.0154309303      -10.0350042000
Al        6.4529984440      -14.6088581073       -0.6593784000
Al        4.8970000000      -13.7105019868       -3.1503784000
 N        6.4529984440      -14.6088581073       -2.5620042000
 N        4.8970000000      -13.7105019868       -5.0530042000
Al        8.0089984440      -11.9137870508       -0.6593784000
Al        6.4530000000      -11.0154309303       -3.1503784000
 N        8.0089984440      -11.9137870508       -2.5620042000
 N        6.4530000000      -11.0154309303       -5.0530042000
Al        6.4529984440      -14.6088581073        4.3226216000
Al        4.8970000000      -13.7105019868        1.8316216000
 N        6.4529984440      -14.6088581073        2.4199958000
 N        4.8970000000      -13.7105019868       -0.0710042000
Al        8.0089984440      -11.9137870508        4.3226216000
Al        6.4530000000      -11.0154309303        1.8316216000
 N        8.0089984440      -11.9137870508        2.4199958000
 N        6.4530000000      -11.0154309303       -0.0710042000
Al        6.4529984440      -14.6088581073        9.3046216000
Al        4.8970000000      -13.7105019868        6.8136216000
 N        6.4529984440      -14.6088581073        7.4019958000
 N        4.8970000000      -13.7105019868        4.9109958000
Al        8.0089984440      -11.9137870508        9.3046216000
Al        6.4530000000      -11.0154309303        6.8136216000
 N        8.0089984440      -11.9137870508        7.4019958000
 N        6.4530000000      -11.0154309303        4.9109958000
Al        6.4529984440      -14.6088581073       14.2866216000
Al        4.8970000000      -13.7105019868       11.7956216000
 N        6.4529984440      -14.6088581073       12.3839958000
 N        4.8970000000      -13.7105019868        9.8929958000
Al        8.0089984440      -11.9137870508       14.2866216000
Al        6.4530000000      -11.0154309303       11.7956216000
 N        8.0089984440      -11.9137870508       12.3839958000
 N        6.4530000000      -11.0154309303        9.8929958000
Al        6.4529984440      -14.6088581073       19.2686216000
Al        4.8970000000      -13.7105019868       16.7776216000
 N        6.4529984440      -14.6088581073       17.3659958000
 N        4.8970000000      -13.7105019868       14.8749958000
Al        8.0089984440      -11.9137870508       19.2686216000
Al        6.4530000000      -11.0154309303       16.7776216000
 N        8.0089984440      -11.9137870508       17.3659958000
 N        6.4530000000      -11.0154309303       14.8749958000
 N        4.8970000000      -13.7105019868       19.8569958000
 N        6.4530000000      -11.0154309303       19.8569958000
Al        6.4529984440       -9.2187159942      -15.6053784000
Al        4.8970000000       -8.3203598737      -18.0963784000
 N        6.4529984440       -9.2187159942      -17.5080042000
 N        4.8970000000       -8.3203598737      -19.9990042000
Al        8.0089984440       -6.5236449376      -15.6053784000
Al        6.4530000000       -5.6252888171      -18.0963784000
 N        8.0089984440       -6.5236449376      -17.5080042000
 N        6.4530000000       -5.6252888171      -19.9990042000
Al        6.4529984440       -9.2187159942      -10.6233784000
Al        4.8970000000       -8.3203598737      -13.1143784000
 N        6.4529984440       -9.2187159942      -12.5260042000
 N        4.8970000000       -8.3203598737      -15.0170042000
Al        8.0089984440       -6.5236449376      -10.6233784000
Al        6.4530000000       -5.6252888171      -13.1143784000
 N        8.0089984440       -6.5236449376      -12.5260042000
 N        6.4530000000       -5.6252888171      -15.0170042000
Al        6.4529984440       -9.2187159942       -5.6413784000
Al        4.8970000000       -8.3203598737       -8.1323784000
 N        6.4529984440       -9.2187159942       -7.5440042000
 N        4.8970000000       -8.3203598737      -10.0350042000
Al        8.0089984440       -6.5236449376       -5.6413784000
Al        6.4530000000       -5.6252888171       -8.1323784000
 N        8.0089984440       -6.5236449376       -7.5440042000
 N        6.4530000000       -5.6252888171      -10.0350042000
Al        6.4529984440       -9.2187159942       -0.6593784000
Al        4.8970000000       -8.3203598737       -3.1503784000
 N        6.4529984440       -9.2187159942       -2.5620042000
 N        4.8970000000       -8.3203598737       -5.0530042000
Al        8.0089984440       -6.5236449376       -0.6593784000
Ga        6.4530000000       -5.6252888171       -3.1503784000
 N        8.0089984440       -6.5236449376       -2.5620042000
 N        6.4530000000       -5.6252888171       -5.0530042000
Al        6.4529984440       -9.2187159942        4.3226216000
Ga        4.8970000000       -8.3203598737        1.8316216000
 N        6.4529984440       -9.2187159942        2.4199958000
 N        4.8970000000       -8.3203598737       -0.0710042000
Al        8.0089984440       -6.5236449376        4.3226216000
Ga        6.4530000000       -5.6252888171        1.8316216000
 N        8.0089984440       -6.5236449376        2.4199958000
 N        6.4530000000       -5.6252888171       -0.0710042000
Al        6.4529984440       -9.2187159942        9.3046216000
Al        4.8970000000       -8.3203598737        6.8136216000
 N        6.4529984440       -9.2187159942        7.4019958000
 N        4.8970000000       -8.3203598737        4.9109958000
Al        8.0089984440       -6.5236449376        9.3046216000
Al        6.4530000000       -5.6252888171        6.8136216000
 N        8.0089984440       -6.5236449376        7.4019958000
 N        6.4530000000       -5.6252888171        4.9109958000
Al        6.4529984440       -9.2187159942       14.2866216000
Al        4.8970000000       -8.3203598737       11.7956216000
 N        6.4529984440       -9.2187159942       12.3839958000
 N        4.8970000000       -8.3203598737        9.8929958000
Al        8.0089984440       -6.5236449376       14.2866216000
Al        6.4530000000       -5.6252888171       11.7956216000
 N        8.0089984440       -6.5236449376       12.3839958000
 N        6.4530000000       -5.6252888171        9.8929958000
Al        6.4529984440       -9.2187159942       19.2686216000
Al        4.8970000000       -8.3203598737       16.7776216000
 N        6.4529984440       -9.2187159942       17.3659958000
 N        4.8970000000       -8.3203598737       14.8749958000
Al        8.0089984440       -6.5236449376       19.2686216000
Al        6.4530000000       -5.6252888171       16.7776216000
 N        8.0089984440       -6.5236449376       17.3659958000
 N        6.4530000000       -5.6252888171       14.8749958000
 N        4.8970000000       -8.3203598737       19.8569958000
 N        6.4530000000       -5.6252888171       19.8569958000
Al        6.4529984440       -3.8285738810      -15.6053784000
Al        4.8970000000       -2.9302177605      -18.0963784000
 N        6.4529984440       -3.8285738810      -17.5080042000
 N        4.8970000000       -2.9302177605      -19.9990042000
Al        8.0089984440       -1.1335028245      -15.6053784000
Al        6.4530000000       -0.2351467040      -18.0963784000
 N        8.0089984440       -1.1335028245      -17.5080042000
 N        6.4530000000       -0.2351467040      -19.9990042000
Al        6.4529984440       -3.8285738810      -10.6233784000
Al        4.8970000000       -2.9302177605      -13.1143784000
 N        6.4529984440       -3.8285738810      -12.5260042000
 N        4.8970000000       -2.9302177605      -15.0170042000
Al        8.0089984440       -1.1335028245      -10.6233784000
Al        6.4530000000       -0.2351467040      -13.1143784000
 N        8.0089984440       -1.1335028245      -12.5260042000
 N        6.4530000000       -0.2351467040      -15.0170042000
Ga        6.4529984440       -3.8285738810       -5.6413784000
Ga        4.8970000000       -2.9302177605       -8.1323784000
 N        6.4529984440       -3.8285738810       -7.5440042000
 N        4.8970000000       -2.9302177605      -10.0350042000
Ga        8.0089984440       -1.1335028245       -5.6413784000
Al        6.4530000000       -0.2351467040       -8.1323784000
 N        8.0089984440       -1.1335028245       -7.5440042000
 N        6.4530000000       -0.2351467040      -10.0350042000
Ga        6.4529984440       -3.8285738810       -0.6593784000
Ga        4.8970000000       -2.9302177605       -3.1503784000
 N        6.4529984440       -3.8285738810       -2.5620042000
 N        4.8970000000       -2.9302177605       -5.0530042000
Ga        8.0089984440       -1.1335028245       -0.6593784000
Ga        6.4530000000       -0.2351467040       -3.1503784000
 N        8.0089984440       -1.1335028245       -2.5620042000
 N        6.4530000000       -0.2351467040       -5.0530042000
Ga        6.4529984440       -3.8285738810        4.3226216000
Ga        4.8970000000       -2.9302177605        1.8316216000
 N        6.4529984440       -3.8285738810        2.4199958000
 N        4.8970000000       -2.9302177605       -0.0710042000
Ga        8.0089984440       -1.1335028245        4.3226216000
Ga        6.4530000000       -0.2351467040        1.8316216000
 N        8.0089984440       -1.1335028245        2.4199958000
 N        6.4530000000       -0.2351467040       -0.0710042000
Al        6.4529984440       -3.8285738810        9.3046216000
Ga        4.8970000000       -2.9302177605        6.8136216000
 N        6.4529984440       -3.8285738810        7.4019958000
 N        4.8970000000       -2.9302177605        4.9109958000
Al        8.0089984440       -1.1335028245        9.3046216000
Ga        6.4530000000       -0.2351467040        6.8136216000
 N        8.0089984440       -1.1335028245        7.4019958000
 N        6.4530000000       -0.2351467040        4.9109958000
Al        6.4529984440       -3.8285738810       14.2866216000
Al        4.8970000000       -2.9302177605       11.7956216000
 N        6.4529984440       -3.8285738810       12.3839958000
 N        4.8970000000       -2.9302177605        9.8929958000
Al        8.0089984440       -1.1335028245       14.2866216000
Al        6.4530000000       -0.2351467040       11.7956216000
 N        8.0089984440       -1.1335028245       12.3839958000
 N        6.4530000000       -0.2351467040        9.8929958000
Al        6.4529984440       -3.8285738810       19.2686216000
Al        4.8970000000       -2.9302177605       16.7776216000
 N        6.4529984440       -3.8285738810       17.3659958000
 N        4.8970000000       -2.9302177605       14.8749958000
Al        8.0089984440       -1.1335028245       19.2686216000
Al        6.4530000000       -0.2351467040       16.7776216000
 N        8.0089984440       -1.1335028245       17.3659958000
 N        6.4530000000       -0.2351467040       14.8749958000
 N        4.8970000000       -2.9302177605       19.8569958000
 N        6.4530000000       -0.2351467040       19.8569958000
Al        6.4529984440        1.5615682321      -15.6053784000
Al        4.8970000000        2.4599243526      -18.0963784000
 N        6.4529984440        1.5615682321      -17.5080042000
 N        4.8970000000        2.4599243526      -19.9990042000
Al        8.0089984440        4.2566392887      -15.6053784000
Al        6.4530000000        5.1549954092      -18.0963784000
 N        8.0089984440        4.2566392887      -17.5080042000
 N        6.4530000000        5.1549954092      -19.9990042000
Al        6.4529984440        1.5615682321      -10.6233784000
Al        4.8970000000        2.4599243526      -13.1143784000
 N        6.4529984440        1.5615682321      -12.5260042000
 N        4.8970000000        2.4599243526      -15.0170042000
Al        8.0089984440        4.2566392887      -10.6233784000
Al        6.4530000000        5.1549954092      -13.1143784000
 N        8.0089984440        4.2566392887      -12.5260042000
 N        6.4530000000        5.1549954092      -15.0170042000
Ga        6.4529984440        1.5615682321       -5.6413784000
Ga        4.8970000000        2.4599243526       -8.1323784000
 N        6.4529984440        1.5615682321       -7.5440042000
 N        4.8970000000        2.4599243526      -10.0350042000
Al        8.0089984440        4.2566392887       -5.6413784000
Al        6.4530000000        5.1549954092       -8.1323784000
 N        8.0089984440        4.2566392887       -7.5440042000
 N        6.4530000000        5.1549954092      -10.0350042000
Ga        6.4529984440        1.5615682321       -0.6593784000
Ga        4.8970000000        2.4599243526       -3.1503784000
 N        6.4529984440        1.5615682321       -2.5620042000
 N        4.8970000000        2.4599243526       -5.0530042000
Ga        8.0089984440        4.2566392887       -0.6593784000
Ga        6.4530000000        5.1549954092       -3.1503784000
 N        8.0089984440        4.2566392887       -2.5620042000
 N        6.4530000000        5.1549954092       -5.0530042000
Ga        6.4529984440        1.5615682321        4.3226216000
Ga        4.8970000000        2.4599243526        1.8316216000
 N        6.4529984440        1.5615682321        2.4199958000
 N        4.8970000000        2.4599243526       -0.0710042000
Al        8.0089984440        4.2566392887        4.3226216000
Ga        6.4530000000        5.1549954092        1.8316216000
 N        8.0089984440        4.2566392887        2.4199958000
 N        6.4530000000        5.1549954092       -0.0710042000
Al        6.4529984440        1.5615682321        9.3046216000
Ga        4.8970000000        2.4599243526        6.8136216000
 N        6.4529984440        1.5615682321        7.4019958000
 N        4.8970000000        2.4599243526        4.9109958000
Al        8.0089984440        4.2566392887        9.3046216000
Al        6.4530000000        5.1549954092        6.8136216000
 N        8.0089984440        4.2566392887        7.4019958000
 N        6.4530000000        5.1549954092        4.9109958000
Al        6.4529984440        1.5615682321       14.2866216000
Al        4.8970000000        2.4599243526       11.7956216000
 N        6.4529984440        1.5615682321       12.3839958000
 N        4.8970000000        2.4599243526        9.8929958000
Al        8.0089984440        4.2566392887       14.2866216000
Al        6.4530000000        5.1549954092       11.7956216000
 N        8.0089984440        4.2566392887       12.3839958000
 N        6.4530000000        5.1549954092        9.8929958000
Al        6.4529984440        1.5615682321       19.2686216000
Al        4.8970000000        2.4599243526       16.7776216000
 N        6.4529984440        1.5615682321       17.3659958000
 N        4.8970000000        2.4599243526       14.8749958000
Al        8.0089984440        4.2566392887       19.2686216000
Al        6.4530000000        5.1549954092       16.7776216000
 N        8.0089984440        4.2566392887       17.3659958000
 N        6.4530000000        5.1549954092       14.8749958000
 N        4.8970000000        2.4599243526       19.8569958000
 N        6.4530000000        5.1549954092       19.8569958000
Al        6.4529984440        6.9517103453      -15.6053784000
Al        4.8970000000        7.8500664658      -18.0963784000
 N        6.4529984440        6.9517103453      -17.5080042000
 N        4.8970000000        7.8500664658      -19.9990042000
Al        8.0089984440        9.6467814018      -15.6053784000
Al        6.4530000000       10.5451375223      -18.0963784000
 N        8.0089984440        9.6467814018      -17.5080042000
 N        6.4530000000       10.5451375223      -19.9990042000
Al        6.4529984440        6.9517103453      -10.6233784000
Al        4.8970000000        7.8500664658      -13.1143784000
 N        6.4529984440        6.9517103453      -12.5260042000
 N        4.8970000000        7.8500664658      -15.0170042000
Al        8.0089984440        9.6467814018      -10.6233784000
Al        6.4530000000       10.5451375223      -13.1143784000
 N        8.0089984440        9.6467814018      -12.5260042000
 N        6.4530000000       10.5451375223      -15.0170042000
Al        6.4529984440        6.9517103453       -5.6413784000
Al        4.8970000000        7.8500664658       -8.1323784000
 N        6.4529984440        6.9517103453       -7.5440042000
 N        4.8970000000        7.8500664658      -10.0350042000
Al        8.0089984440        9.6467814018       -5.6413784000
Al        6.4530000000       10.5451375223       -8.1323784000
 N        8.0089984440        9.6467814018       -7.5440042000
 N        6.4530000000       10.5451375223      -10.0350042000
Ga        6.4529984440        6.9517103453       -0.6593784000
Ga        4.8970000000        7.8500664658       -3.1503784000
 N        6.4529984440        6.9517103453       -2.5620042000
 N        4.8970000000        7.8500664658       -5.0530042000
Al        8.0089984440        9.6467814018       -0.6593784000
Al        6.4530000000       10.5451375223       -3.1503784000
 N        8.0089984440        9.6467814018       -2.5620042000
 N        6.4530000000       10.5451375223       -5.0530042000
Al        6.4529984440        6.9517103453        4.3226216000
Ga        4.8970000000        7.8500664658        1.8316216000
 N        6.4529984440        6.9517103453        2.4199958000
 N        4.8970000000        7.8500664658       -0.0710042000
Al        8.0089984440        9.6467814018        4.3226216000
Al        6.4530000000       10.5451375223        1.8316216000
 N        8.0089984440        9.6467814018        2.4199958000
 N        6.4530000000       10.5451375223       -0.0710042000
Al        6.4529984440        6.9517103453        9.3046216000
Al        4.8970000000        7.8500664658        6.8136216000
 N        6.4529984440        6.9517103453        7.4019958000
 N        4.8970000000        7.8500664658        4.9109958000
Al        8.0089984440        9.6467814018        9.3046216000
Al        6.4530000000       10.5451375223        6.8136216000
 N        8.0089984440        9.6467814018        7.4019958000
 N        6.4530000000       10.5451375223        4.9109958000
Al        6.4529984440        6.9517103453       14.2866216000
Al        4.8970000000        7.8500664658       11.7956216000
 N        6.4529984440        6.9517103453       12.3839958000
 N        4.8970000000        7.8500664658        9.8929958000
Al        8.0089984440        9.6467814018       14.2866216000
Al        6.4530000000       10.5451375223       11.7956216000
 N        8.0089984440        9.6467814018       12.3839958000
 N        6.4530000000       10.5451375223        9.8929958000
Al        6.4529984440        6.9517103453       19.2686216000
Al        4.8970000000        7.8500664658       16.7776216000
 N        6.4529984440        6.9517103453       17.3659958000
 N        4.8970000000        7.8500664658       14.8749958000
Al        8.0089984440        9.6467814018       19.2686216000
Al        6.4530000000       10.5451375223       16.7776216000
 N        8.0089984440        9.6467814018       17.3659958000
 N        6.4530000000       10.5451375223       14.8749958000
 N        4.8970000000        7.8500664658       19.8569958000
 N        6.4530000000       10.5451375223       19.8569958000
Al        6.4529984440       12.3418524584      -15.6053784000
Al        4.8970000000       13.2402085789      -18.0963784000
 N        6.4529984440       12.3418524584      -17.5080042000
 N        4.8970000000       13.2402085789      -19.9990042000
Al        8.0089984440       15.0369235150      -15.6053784000
Al        6.4530000000       15.9352796355      -18.0963784000
 N        8.0089984440       15.0369235150      -17.5080042000
 N        6.4530000000       15.9352796355      -19.9990042000
Al        6.4529984440       12.3418524584      -10.6233784000
Al        4.8970000000       13.2402085789      -13.1143784000
 N        6.4529984440       12.3418524584      -12.5260042000
 N        4.8970000000       13.2402085789      -15.0170042000
Al        8.0089984440       15.0369235150      -10.6233784000
Al        6.4530000000       15.9352796355      -13.1143784000
 N        8.0089984440       15.0369235150      -12.5260042000
 N        6.4530000000       15.9352796355      -15.0170042000
Al        6.4529984440       12.3418524584       -5.6413784000
Al        4.8970000000       13.2402085789       -8.1323784000
 N        6.4529984440       12.3418524584       -7.5440042000
 N        4.8970000000       13.2402085789      -10.0350042000
Al        8.0089984440       15.0369235150       -5.6413784000
Al        6.4530000000       15.9352796355       -8.1323784000
 N        8.0089984440       15.0369235150       -7.5440042000
 N        6.4530000000       15.9352796355      -10.0350042000
Al        6.4529984440       12.3418524584       -0.6593784000
Al        4.8970000000       13.2402085789       -3.1503784000
 N        6.4529984440       12.3418524584       -2.5620042000
 N        4.8970000000       13.2402085789       -5.0530042000
Al        8.0089984440       15.0369235150       -0.6593784000
Al        6.4530000000       15.9352796355       -3.1503784000
 N        8.0089984440       15.0369235150       -2.5620042000
 N        6.4530000000       15.9352796355       -5.0530042000
Al        6.4529984440       12.3418524584        4.3226216000
Al        4.8970000000       13.2402085789        1.8316216000
 N        6.4529984440       12.3418524584        2.4199958000
 N        4.8970000000       13.2402085789       -0.0710042000
Al        8.0089984440       15.0369235150        4.3226216000
Al        6.4530000000       15.9352796355        1.8316216000
 N        8.0089984440       15.0369235150        2.4199958000
 N        6.4530000000       15.9352796355       -0.0710042000
Al        6.4529984440       12.3418524584        9.3046216000
Al        4.8970000000       13.2402085789        6.8136216000
 N        6.4529984440       12.3418524584        7.4019958000
 N        4.8970000000       13.2402085789        4.9109958000
Al        8.0089984440       15.0369235150        9.3046216000
Al        6.4530000000       15.9352796355        6.8136216000
 N        8.0089984440       15.0369235150        7.4019958000
 N        6.4530000000       15.9352796355        4.9109958000
Al        6.4529984440       12.3418524584       14.2866216000
Al        4.8970000000       13.2402085789       11.7956216000
 N        6.4529984440       12.3418524584       12.3839958000
 N        4.8970000000       13.2402085789        9.8929958000
Al        8.0089984440       15.0369235150       14.2866216000
Al        6.4530000000       15.9352796355       11.7956216000
 N        8.0089984440       15.0369235150       12.3839958000
 N        6.4530000000       15.9352796355        9.8929958000
Al        6.4529984440       12.3418524584       19.2686216000
Al        4.8970000000       13.2402085789       16.7776216000
 N        6.4529984440       12.3418524584       17.3659958000
 N        4.8970000000       13.2402085789       14.8749958000
Al        8.0089984440       15.0369235150       19.2686216000
Al        6.4530000000       15.9352796355       16.7776216000
 N        8.0089984440       15.0369235150       17.3659958000
 N        6.4530000000       15.9352796355       14.8749958000
 N        4.8970000000       13.2402085789       19.8569958000
 N        6.4530000000       15.9352796355       19.8569958000
Al        6.4529984440       17.7319945716      -15.6053784000
Al        4.8970000000       18.6303506921      -18.0963784000
 N        6.4529984440       17.7319945716      -17.5080042000
 N        4.8970000000       18.6303506921      -19.9990042000
Al        6.4529984440       17.7319945716      -10.6233784000
Al        4.8970000000       18.6303506921      -13.1143784000
 N        6.4529984440       17.7319945716      -12.5260042000
 N        4.8970000000       18.6303506921      -15.0170042000
Al        6.4529984440       17.7319945716       -5.6413784000
Al        4.8970000000       18.6303506921       -8.1323784000
 N        6.4529984440       17.7319945716       -7.5440042000
 N        4.8970000000       18.6303506921      -10.0350042000
Al        6.4529984440       17.7319945716       -0.6593784000
Al        4.8970000000       18.6303506921       -3.1503784000
 N        6.4529984440       17.7319945716       -2.5620042000
 N        4.8970000000       18.6303506921       -5.0530042000
Al        6.4529984440       17.7319945716        4.3226216000
Al        4.8970000000       18.6303506921        1.8316216000
 N        6.4529984440       17.7319945716        2.4199958000
 N        4.8970000000       18.6303506921       -0.0710042000
Al        6.4529984440       17.7319945716        9.3046216000
Al        4.8970000000       18.6303506921        6.8136216000
 N        6.4529984440       17.7319945716        7.4019958000
 N        4.8970000000       18.6303506921        4.9109958000
Al        6.4529984440       17.7319945716       14.2866216000
Al        4.8970000000       18.6303506921       11.7956216000
 N        6.4529984440       17.7319945716       12.3839958000
 N        4.8970000000       18.6303506921        9.8929958000
Al        6.4529984440       17.7319945716       19.2686216000
Al        4.8970000000       18.6303506921       16.7776216000
 N        6.4529984440       17.7319945716       17.3659958000
 N        4.8970000000       18.6303506921       14.8749958000
 N        4.8970000000       18.6303506921       19.8569958000
Al        9.5649984440      -19.9990002205      -15.6053784000
Al        8.0090000000      -19.1006441000      -18.0963784000
 N        9.5649984440      -19.9990002205      -17.5080042000
 N        8.0090000000      -19.1006441000      -19.9990042000
Al       11.1209984440      -17.3039291639      -15.6053784000
Al        9.5650000000      -16.4055730434      -18.0963784000
 N       11.1209984440      -17.3039291639      -17.5080042000
 N        9.5650000000      -16.4055730434      -19.9990042000
Al        9.5649984440      -19.9990002205      -10.6233784000
Al        8.0090000000      -19.1006441000      -13.1143784000
 N        9.5649984440      -19.9990002205      -12.5260042000
 N        8.0090000000      -19.1006441000      -15.0170042000
Al       11.1209984440      -17.3039291639      -10.6233784000
Al        9.5650000000      -16.4055730434      -13.1143784000
 N       11.1209984440      -17.3039291639      -12.5260042000
 N        9.5650000000      -16.4055730434      -15.0170042000
Al        9.5649984440      -19.9990002205       -5.6413784000
Al        8.0090000000      -19.1006441000       -8.1323784000
 N        9.5649984440      -19.9990002205       -7.5440042000
 N        8.0090000000      -19.1006441000      -10.0350042000
Al       11.1209984440      -17.3039291639       -5.6413784000
Al        9.5650000000      -16.4055730434       -8.1323784000
 N       11.1209984440      -17.3039291639       -7.5440042000
 N        9.5650000000      -16.4055730434      -10.0350042000
Al        9.5649984440      -19.9990002205       -0.6593784000
Al        8.0090000000      -19.1006441000       -3.1503784000
 N        9.5649984440      -19.9990002205       -2.5620042000
 N        8.0090000000      -19.1006441000       -5.0530042000
Al       11.1209984440      -17.3039291639       -0.6593784000
Al        9.5650000000      -16.4055730434       -3.1503784000
 N       11.1209984440      -17.3039291639       -2.5620042000
 N        9.5650000000      -16.4055730434       -5.0530042000
Al        9.5649984440      -19.9990002205        4.3226216000
Al        8.0090000000      -19.1006441000        1.8316216000
 N        9.5649984440      -19.9990002205        2.4199958000
 N        8.0090000000      -19.1006441000       -0.0710042000
Al       11.1209984440      -17.3039291639        4.3226216000
Al        9.5650000000      -16.4055730434        1.8316216000
 N       11.1209984440      -17.3039291639        2.4199958000
 N        9.5650000000      -16.4055730434       -0.0710042000
Al        9.5649984440      -19.9990002205        9.3046216000
Al        8.0090000000      -19.1006441000        6.8136216000
 N        9.5649984440      -19.9990002205        7.4019958000
 N        8.0090000000      -19.1006441000        4.9109958000
Al       11.1209984440      -17.3039291639        9.3046216000
Al        9.5650000000      -16.4055730434        6.8136216000
 N       11.1209984440      -17.3039291639        7.4019958000
 N        9.5650000000      -16.4055730434        4.9109958000
Al        9.5649984440      -19.9990002205       14.2866216000
Al        8.0090000000      -19.1006441000       11.7956216000
 N        9.5649984440      -19.9990002205       12.3839958000
 N        8.0090000000      -19.1006441000        9.8929958000
Al       11.1209984440      -17.3039291639       14.2866216000
Al        9.5650000000      -16.4055730434       11.7956216000
 N       11.1209984440      -17.3039291639       12.3839958000
 N        9.5650000000      -16.4055730434        9.8929958000
Al        9.5649984440      -19.9990002205       19.2686216000
Al        8.0090000000      -19.1006441000       16.7776216000
 N        9.5649984440      -19.9990002205       17.3659958000
 N        8.0090000000      -19.1006441000       14.8749958000
Al       11.1209984440      -17.3039291639       19.2686216000
Al        9.5650000000      -16.4055730434       16.7776216000
 N       11.1209984440      -17.3039291639       17.3659958000
 N        9.5650000000      -16.4055730434       14.8749958000
 N        8.0090000000      -19.1006441000       19.8569958000
 N        9.5650000000      -16.4055730434       19.8569958000
Al        9.5649984440      -14.6088581073      -15.6053784000
Al        8.0090000000      -13.7105019868      -18.0963784000
 N        9.5649984440      -14.6088581073      -17.5080042000
 N        8.0090000000      -13.7105019868      -19.9990042000
Al       11.1209984440      -11.9137870508      -15.6053784000
Al        9.5650000000      -11.0154309303      -18.0963784000
 N       11.1209984440      -11.9137870508      -17.5080042000
 N        9.5650000000      -11.0154309303      -19.9990042000
Al        9.5649984440      -14.6088581073      -10.6233784000
Al        8.0090000000      -13.7105019868      -13.1143784000
 N        9.5649984440      -14.6088581073      -12.5260042000
 N        8.0090000000      -13.7105019868      -15.0170042000
Al       11.1209984440      -11.9137870508      -10.6233784000
Al        9.5650000000      -11.0154309303      -13.1143784000
 N       11.1209984440      -11.9137870508      -12.5260042000
 N        9.5650000000      -11.0154309303      -15.0170042000
Al        9.5649984440      -14.6088581073       -5.6413784000
Al        8.0090000000      -13.7105019868       -8.1323784000
 N        9.5649984440      -14.6088581073       -7.5440042000
 N        8.0090000000      -13.7105019868      -10.0350042000
Al       11.1209984440      -11.9137870508       -5.6413784000
Al        9.5650000000      -11.0154309303       -8.1323784000
 N       11.1209984440      -11.9137870508       -7.5440042000
 N        9.5650000000      -11.0154309303      -10.0350042000
Al        9.5649984440      -14.6088581073       -0.6593784000
Al        8.0090000000      -13.7105019868       -3.1503784000
 N        9.5649984440      -14.6088581073       -2.5620042000
 N        8.0090000000      -13.7105019868       -5.0530042000
Al       11.1209984440      -11.9137870508       -0.6593784000
Al        9.5650000000      -11.0154309303       -3.1503784000
 N       11.1209984440      -11.9137870508       -2.5620042000
 N        9.5650000000      -11.0154309303       -5.0530042000
Al        9.5649984440      -14.6088581073        4.3226216000
Al        8.0090000000      -13.7105019868        1.8316216000
 N        9.5649984440      -14.6088581073        2.4199958000
 N        8.0090000000      -13.7105019868       -0.0710042000
Al       11.1209984440      -11.9137870508        4.3226216000
Al        9.5650000000      -11.0154309303        1.8316216000
 N       11.1209984440      -11.9137870508        2.4199958000
 N        9.5650000000      -11.0154309303       -0.0710042000
Al        9.5649984440      -14.6088581073        9.3046216000
Al        8.0090000000      -13.7105019868        6.8136216000
 N        9.5649984440      -14.6088581073        7.4019958000
 N        8.0090000000      -13.7105019868        4.9109958000
Al       11.1209984440      -11.9137870508        9.3046216000
Al        9.5650000000      -11.0154309303        6.8136216000
 N       11.1209984440      -11.9137870508        7.4019958000
 N        9.5650000000      -11.0154309303        4.9109958000
Al        9.5649984440      -14.6088581073       14.2866216000
Al        8.0090000000      -13.7105019868       11.7956216000
 N        9.5649984440      -14.6088581073       12.3839958000
 N        8.0090000000      -13.7105019868        9.8929958000
Al       11.1209984440      -11.9137870508       14.2866216000
Al        9.5650000000      -11.0154309303       11.7956216000
 N       11.1209984440      -11.9137870508       12.3839958000
 N        9.5650000000      -11.0154309303        9.8929958000
Al        9.5649984440      -14.6088581073       19.2686216000
Al        8.0090000000      -13.7105019868       16.7776216000
 N        9.5649984440      -14.6088581073       17.3659958000
 N        8.0090000000      -13.7105019868       14.8749958000
Al       11.1209984440      -11.9137870508       19.2686216000
Al        9.5650000000      -11.0154309303       16.7776216000
 N       11.1209984440      -11.9137870508       17.3659958000
 N        9.5650000000      -11.0154309303       14.8749958000
 N        8.0090000000      -13.7105019868       19.8569958000
 N        9.5650000000      -11.0154309303       19.8569958000
Al        9.5649984440       -9.2187159942      -15.6053784000
Al        8.0090000000       -8.3203598737      -18.0963784000
 N        9.5649984440       -9.2187159942      -17.5080042000
 N        8.0090000000       -8.3203598737      -19.9990042000
Al       11.1209984440       -6.5236449376      -15.6053784000
Al        9.5650000000       -5.6252888171      -18.0963784000
 N       11.1209984440       -6.5236449376      -17.5080042000
 N        9.5650000000       -5.6252888171      -19.9990042000
Al        9.5649984440       -9.2187159942      -10.6233784000
Al        8.0090000000       -8.3203598737      -13.1143784000
 N        9.5649984440       -9.2187159942      -12.5260042000
 N        8.0090000000       -8.3203598737      -15.0170042000
Al       11.1209984440       -6.5236449376      -10.6233784000
Al        9.5650000000       -5.6252888171      -13.1143784000
 N       11.1209984440       -6.5236449376      -12.5260042000
 N        9.5650000000       -5.6252888171      -15.0170042000
Al        9.5649984440       -9.2187159942       -5.6413784000
Al        8.0090000000       -8.3203598737       -8.1323784000
 N        9.5649984440       -9.2187159942       -7.5440042000
 N        8.0090000000       -8.3203598737      -10.0350042000
Al       11.1209984440       -6.5236449376       -5.6413784000
Al        9.5650000000       -5.6252888171       -8.1323784000
 N       11.1209984440       -6.5236449376       -7.5440042000
 N        9.5650000000       -5.6252888171      -10.0350042000
Al        9.5649984440       -9.2187159942       -0.6593784000
Al        8.0090000000       -8.3203598737       -3.1503784000
 N        9.5649984440       -9.2187159942       -2.5620042000
 N        8.0090000000       -8.3203598737       -5.0530042000
Al       11.1209984440       -6.5236449376       -0.6593784000
Al        9.5650000000       -5.6252888171       -3.1503784000
 N       11.1209984440       -6.5236449376       -2.5620042000
 N        9.5650000000       -5.6252888171       -5.0530042000
Al        9.5649984440       -9.2187159942        4.3226216000
Al        8.0090000000       -8.3203598737        1.8316216000
 N        9.5649984440       -9.2187159942        2.4199958000
 N        8.0090000000       -8.3203598737       -0.0710042000
Al       11.1209984440       -6.5236449376        4.3226216000
Al        9.5650000000       -5.6252888171        1.8316216000
 N       11.1209984440       -6.5236449376        2.4199958000
 N        9.5650000000       -5.6252888171       -0.0710042000
Al        9.5649984440       -9.2187159942        9.3046216000
Al        8.0090000000       -8.3203598737        6.8136216000
 N        9.5649984440       -9.2187159942        7.4019958000
 N        8.0090000000       -8.3203598737        4.9109958000
Al       11.1209984440       -6.5236449376        9.3046216000
Al        9.5650000000       -5.6252888171        6.8136216000
 N       11.1209984440       -6.5236449376        7.4019958000
 N        9.5650000000       -5.6252888171        4.9109958000
Al        9.5649984440       -9.2187159942       14.2866216000
Al        8.0090000000       -8.3203598737       11.7956216000
 N        9.5649984440       -9.2187159942       12.3839958000
 N        8.0090000000       -8.3203598737        9.8929958000
Al       11.1209984440       -6.5236449376       14.2866216000
Al        9.5650000000       -5.6252888171       11.7956216000
 N       11.1209984440       -6.5236449376       12.3839958000
 N        9.5650000000       -5.6252888171        9.8929958000
Al        9.5649984440       -9.2187159942       19.2686216000
Al        8.0090000000       -8.3203598737       16.7776216000
 N        9.5649984440       -9.2187159942       17.3659958000
 N        8.0090000000       -8.3203598737       14.8749958000
Al       11.1209984440       -6.5236449376       19.2686216000
Al        9.5650000000       -5.6252888171       16.7776216000
 N       11.1209984440       -6.5236449376       17.3659958000
 N        9.5650000000       -5.6252888171       14.8749958000
 N        8.0090000000       -8.3203598737       19.8569958000
 N        9.5650000000       -5.6252888171       19.8569958000
Al        9.5649984440       -3.8285738810      -15.6053784000
Al        8.0090000000       -2.9302177605      -18.0963784000
 N        9.5649984440       -3.8285738810      -17.5080042000
 N        8.0090000000       -2.9302177605      -19.9990042000
Al       11.1209984440       -1.1335028245      -15.6053784000
Al        9.5650000000       -0.2351467040      -18.0963784000
 N       11.1209984440       -1.1335028245      -17.5080042000
 N        9.5650000000       -0.2351467040      -19.9990042000
Al        9.5649984440       -3.8285738810      -10.6233784000
Al        8.0090000000       -2.9302177605      -13.1143784000
 N        9.5649984440       -3.8285738810      -12.5260042000
 N        8.0090000000       -2.9302177605      -15.0170042000
Al       11.1209984440       -1.1335028245      -10.6233784000
Al        9.5650000000       -0.2351467040      -13.1143784000
 N       11.1209984440       -1.1335028245      -12.5260042000
 N        9.5650000000       -0.2351467040      -15.0170042000
Al        9.5649984440       -3.8285738810       -5.6413784000
Al        8.0090000000       -2.9302177605       -8.1323784000
 N        9.5649984440       -3.8285738810       -7.5440042000
 N        8.0090000000       -2.9302177605      -10.0350042000
Al       11.1209984440       -1.1335028245       -5.6413784000
Al        9.5650000000       -0.2351467040       -8.1323784000
 N       11.1209984440       -1.1335028245       -7.5440042000
 N        9.5650000000       -0.2351467040      -10.0350042000
Al        9.5649984440       -3.8285738810       -0.6593784000
Ga        8.0090000000       -2.9302177605       -3.1503784000
 N        9.5649984440       -3.8285738810       -2.5620042000
 N        8.0090000000       -2.9302177605       -5.0530042000
Al       11.1209984440       -1.1335028245       -0.6593784000
Al        9.5650000000       -0.2351467040       -3.1503784000
 N       11.1209984440       -1.1335028245       -2.5620042000
 N        9.5650000000       -0.2351467040       -5.0530042000
Al        9.5649984440       -3.8285738810        4.3226216000
Ga        8.0090000000       -2.9302177605        1.8316216000
 N        9.5649984440       -3.8285738810        2.4199958000
 N        8.0090000000       -2.9302177605       -0.0710042000
Al       11.1209984440       -1.1335028245        4.3226216000
Ga        9.5650000000       -0.2351467040        1.8316216000
 N       11.1209984440       -1.1335028245        2.4199958000
 N        9.5650000000       -0.2351467040       -0.0710042000
Al        9.5649984440       -3.8285738810        9.3046216000
Al        8.0090000000       -2.9302177605        6.8136216000
 N        9.5649984440       -3.8285738810        7.4019958000
 N        8.0090000000       -2.9302177605        4.9109958000
Al       11.1209984440       -1.1335028245        9.3046216000
Al        9.5650000000       -0.2351467040        6.8136216000
 N       11.1209984440       -1.1335028245        7.4019958000
 N        9.5650000000       -0.2351467040        4.9109958000
Al        9.5649984440       -3.8285738810       14.2866216000
Al        8.0090000000       -2.9302177605       11.7956216000
 N        9.5649984440       -3.8285738810       12.3839958000
 N        8.0090000000       -2.9302177605        9.8929958000
Al       11.1209984440       -1.1335028245       14.2866216000
Al        9.5650000000       -0.2351467040       11.7956216000
 N       11.1209984440       -1.1335028245       12.3839958000
 N        9.5650000000       -0.2351467040        9.8929958000
Al        9.5649984440       -3.8285738810       19.2686216000
Al        8.0090000000       -2.9302177605       16.7776216000
 N        9.5649984440       -3.8285738810       17.3659958000
 N        8.0090000000       -2.9302177605       14.8749958000
Al       11.1209984440       -1.1335028245       19.2686216000
Al        9.5650000000       -0.2351467040       16.7776216000
 N       11.1209984440       -1.1335028245       17.3659958000
 N        9.5650000000       -0.2351467040       14.8749958000
 N        8.0090000000       -2.9302177605       19.8569958000
 N        9.5650000000       -0.2351467040       19.8569958000
Al        9.5649984440        1.5615682321      -15.6053784000
Al        8.0090000000        2.4599243526      -18.0963784000
 N        9.5649984440        1.5615682321      -17.5080042000
 N        8.0090000000        2.4599243526      -19.9990042000
Al       11.1209984440        4.2566392887      -15.6053784000
Al        9.5650000000        5.1549954092      -18.0963784000
 N       11.1209984440        4.2566392887      -17.5080042000
 N        9.5650000000        5.1549954092      -19.9990042000
Al        9.5649984440        1.5615682321      -10.6233784000
Al        8.0090000000        2.4599243526      -13.1143784000
 N        9.5649984440        1.5615682321      -12.5260042000
 N        8.0090000000        2.4599243526      -15.0170042000
Al       11.1209984440        4.2566392887      -10.6233784000
Al        9.5650000000        5.1549954092      -13.1143784000
 N       11.1209984440        4.2566392887      -12.5260042000
 N        9.5650000000        5.1549954092      -15.0170042000
Al        9.5649984440        1.5615682321       -5.6413784000
Al        8.0090000000        2.4599243526       -8.1323784000
 N        9.5649984440        1.5615682321       -7.5440042000
 N        8.0090000000        2.4599243526      -10.0350042000
Al       11.1209984440        4.2566392887       -5.6413784000
Al        9.5650000000        5.1549954092       -8.1323784000
 N       11.1209984440        4.2566392887       -7.5440042000
 N        9.5650000000        5.1549954092      -10.0350042000
Ga        9.5649984440        1.5615682321       -0.6593784000
Ga        8.0090000000        2.4599243526       -3.1503784000
 N        9.5649984440        1.5615682321       -2.5620042000
 N        8.0090000000        2.4599243526       -5.0530042000
Al       11.1209984440        4.2566392887       -0.6593784000
Al        9.5650000000        5.1549954092       -3.1503784000
 N       11.1209984440        4.2566392887       -2.5620042000
 N        9.5650000000        5.1549954092       -5.0530042000
Al        9.5649984440        1.5615682321        4.3226216000
Ga        8.0090000000        2.4599243526        1.8316216000
 N        9.5649984440        1.5615682321        2.4199958000
 N        8.0090000000        2.4599243526       -0.0710042000
Al       11.1209984440        4.2566392887        4.3226216000
Al        9.5650000000        5.1549954092        1.8316216000
 N       11.1209984440        4.2566392887        2.4199958000
 N        9.5650000000        5.1549954092       -0.0710042000
Al        9.5649984440        1.5615682321        9.3046216000
Al        8.0090000000        2.4599243526        6.8136216000
 N        9.5649984440        1.5615682321        7.4019958000
 N        8.0090000000        2.4599243526        4.9109958000
Al       11.1209984440        4.2566392887        9.3046216000
Al        9.5650000000        5.1549954092        6.8136216000
 N       11.1209984440        4.2566392887        7.4019958000
 N        9.5650000000        5.1549954092        4.9109958000
Al        9.5649984440        1.5615682321       14.2866216000
Al        8.0090000000        2.4599243526       11.7956216000
 N        9.5649984440        1.5615682321       12.3839958000
 N        8.0090000000        2.4599243526        9.8929958000
Al       11.1209984440        4.2566392887       14.2866216000
Al        9.5650000000        5.1549954092       11.7956216000
 N       11.1209984440        4.2566392887       12.3839958000
 N        9.5650000000        5.1549954092        9.8929958000
Al        9.5649984440        1.5615682321       19.2686216000
Al        8.0090000000        2.4599243526       16.7776216000
 N        9.5649984440        1.5615682321       17.3659958000
 N        8.0090000000        2.4599243526       14.8749958000
Al       11.1209984440        4.2566392887       19.2686216000
Al        9.5650000000        5.1549954092       16.7776216000
 N       11.1209984440        4.2566392887       17.3659958000
 N        9.5650000000        5.1549954092       14.8749958000
 N        8.0090000000        2.4599243526       19.8569958000
 N        9.5650000000        5.1549954092       19.8569958000
Al        9.5649984440        6.9517103453      -15.6053784000
Al        8.0090000000        7.8500664658      -18.0963784000
 N        9.5649984440        6.9517103453      -17.5080042000
 N        8.0090000000        7.8500664658      -19.9990042000
Al       11.1209984440        9.6467814018      -15.6053784000
Al        9.5650000000       10.5451375223      -18.0963784000
 N       11.1209984440        9.6467814018      -17.5080042000
 N        9.5650000000       10.5451375223      -19.9990042000
Al        9.5649984440        6.9517103453      -10.6233784000
Al        8.0090000000        7.8500664658      -13.1143784000
 N        9.5649984440        6.9517103453      -12.5260042000
 N        8.0090000000        7.8500664658      -15.0170042000
Al       11.1209984440        9.6467814018      -10.6233784000
Al        9.5650000000       10.5451375223      -13.1143784000
 N       11.1209984440        9.6467814018      -12.5260042000
 N        9.5650000000       10.5451375223      -15.0170042000
Al        9.5649984440        6.9517103453       -5.6413784000
Al        8.0090000000        7.8500664658       -8.1323784000
 N        9.5649984440        6.9517103453       -7.5440042000
 N        8.0090000000        7.8500664658      -10.0350042000
Al       11.1209984440        9.6467814018       -5.6413784000
Al        9.5650000000       10.5451375223       -8.1323784000
 N       11.1209984440        9.6467814018       -7.5440042000
 N        9.5650000000       10.5451375223      -10.0350042000
Al        9.5649984440        6.9517103453       -0.6593784000
Al        8.0090000000        7.8500664658       -3.1503784000
 N        9.5649984440        6.9517103453       -2.5620042000
 N        8.0090000000        7.8500664658       -5.0530042000
Al       11.1209984440        9.6467814018       -0.6593784000
Al        9.5650000000       10.5451375223       -3.1503784000
 N       11.1209984440        9.6467814018       -2.5620042000
 N        9.5650000000       10.5451375223       -5.0530042000
Al        9.5649984440        6.9517103453        4.3226216000
Al        8.0090000000        7.8500664658        1.8316216000
 N        9.5649984440        6.9517103453        2.4199958000
 N        8.0090000000        7.8500664658       -0.0710042000
Al       11.1209984440        9.6467814018        4.3226216000
Al        9.5650000000       10.5451375223        1.8316216000
 N       11.1209984440        9.6467814018        2.4199958000
 N        9.5650000000       10.5451375223       -0.0710042000
Al        9.5649984440        6.9517103453        9.3046216000
Al        8.0090000000        7.8500664658        6.8136216000
 N        9.5649984440        6.9517103453        7.4019958000
 N        8.0090000000        7.8500664658        4.9109958000
Al       11.1209984440        9.6467814018        9.3046216000
Al        9.5650000000       10.5451375223        6.8136216000
 N       11.1209984440        9.6467814018        7.4019958000
 N        9.5650000000       10.5451375223        4.9109958000
Al        9.5649984440        6.9517103453       14.2866216000
Al        8.0090000000        7.8500664658       11.7956216000
 N        9.5649984440        6.9517103453       12.3839958000
 N        8.0090000000        7.8500664658        9.8929958000
Al       11.1209984440        9.6467814018       14.2866216000
Al        9.5650000000       10.5451375223       11.7956216000
 N       11.1209984440        9.6467814018       12.3839958000
 N        9.5650000000       10.5451375223        9.8929958000
Al        9.5649984440        6.9517103453       19.2686216000
Al        8.0090000000        7.8500664658       16.7776216000
 N        9.5649984440        6.9517103453       17.3659958000
 N        8.0090000000        7.8500664658       14.8749958000
Al       11.1209984440        9.6467814018       19.2686216000
Al        9.5650000000       10.5451375223       16.7776216000
 N       11.1209984440        9.6467814018       17.3659958000
 N        9.5650000000       10.5451375223       14.8749958000
 N        8.0090000000        7.8500664658       19.8569958000
 N        9.5650000000       10.5451375223       19.8569958000
Al        9.5649984440       12.3418524584      -15.6053784000
Al        8.0090000000       13.2402085789      -18.0963784000
 N        9.5649984440       12.3418524584      -17.5080042000
 N        8.0090000000       13.2402085789      -19.9990042000
Al       11.1209984440       15.0369235150      -15.6053784000
Al        9.5650000000       15.9352796355      -18.0963784000
 N       11.1209984440       15.0369235150      -17.5080042000
 N        9.5650000000       15.9352796355      -19.9990042000
Al        9.5649984440       12.3418524584      -10.6233784000
Al        8.0090000000       13.2402085789      -13.1143784000
 N        9.5649984440       12.3418524584      -12.5260042000
 N        8.0090000000       13.2402085789      -15.0170042000
Al       11.1209984440       15.0369235150      -10.6233784000
Al        9.5650000000       15.9352796355      -13.1143784000
 N       11.1209984440       15.0369235150      -12.5260042000
 N        9.5650000000       15.9352796355      -15.0170042000
Al        9.5649984440       12.3418524584       -5.6413784000
Al        8.0090000000       13.2402085789       -8.1323784000
 N        9.5649984440       12.3418524584       -7.5440042000
 N        8.0090000000       13.2402085789      -10.0350042000
Al       11.1209984440       15.0369235150       -5.6413784000
Al        9.5650000000       15.9352796355       -8.1323784000
 N       11.1209984440       15.0369235150       -7.5440042000
 N        9.5650000000       15.9352796355      -10.0350042000
Al        9.5649984440       12.3418524584       -0.6593784000
Al        8.0090000000       13.2402085789       -3.1503784000
 N        9.5649984440       12.3418524584       -2.5620042000
 N        8.0090000000       13.2402085789       -5.0530042000
Al       11.1209984440       15.0369235150       -0.6593784000
Al        9.5650000000       15.9352796355       -3.1503784000
 N       11.1209984440       15.0369235150       -2.5620042000
 N        9.5650000000       15.9352796355       -5.0530042000
Al        9.5649984440       12.3418524584        4.3226216000
Al        8.0090000000       13.2402085789        1.8316216000
 N        9.5649984440       12.3418524584        2.4199958000
 N        8.0090000000       13.2402085789       -0.0710042000
Al       11.1209984440       15.0369235150        4.3226216000
Al        9.5650000000       15.9352796355        1.8316216000
 N       11.1209984440       15.0369235150        2.4199958000
 N        9.5650000000       15.9352796355       -0.0710042000
Al        9.5649984440       12.3418524584        9.3046216000
Al        8.0090000000       13.2402085789        6.8136216000
 N        9.5649984440       12.3418524584        7.4019958000
 N        8.0090000000       13.2402085789        4.9109958000
Al       11.1209984440       15.0369235150        9.3046216000
Al        9.5650000000       15.9352796355        6.8136216000
 N       11.1209984440       15.0369235150        7.4019958000
 N        9.5650000000       15.9352796355        4.9109958000
Al        9.5649984440       12.3418524584       14.2866216000
Al        8.0090000000       13.2402085789       11.7956216000
 N        9.5649984440       12.3418524584       12.3839958000
 N        8.0090000000       13.2402085789        9.8929958000
Al       11.1209984440       15.0369235150       14.2866216000
Al        9.5650000000       15.9352796355       11.7956216000
 N       11.1209984440       15.0369235150       12.3839958000
 N        9.5650000000       15.9352796355        9.8929958000
Al        9.5649984440       12.3418524584       19.2686216000
Al        8.0090000000       13.2402085789       16.7776216000
 N        9.5649984440       12.3418524584       17.3659958000
 N        8.0090000000       13.2402085789       14.8749958000
Al       11.1209984440       15.0369235150       19.2686216000
Al        9.5650000000       15.9352796355       16.7776216000
 N       11.1209984440       15.0369235150       17.3659958000
 N        9.5650000000       15.9352796355       14.8749958000
 N        8.0090000000       13.2402085789       19.8569958000
 N        9.5650000000       15.9352796355       19.8569958000
Al        9.5649984440       17.7319945716      -15.6053784000
Al        8.0090000000       18.6303506921      -18.0963784000
 N        9.5649984440       17.7319945716      -17.5080042000
 N        8.0090000000       18.6303506921      -19.9990042000
Al        9.5649984440       17.7319945716      -10.6233784000
Al        8.0090000000       18.6303506921      -13.1143784000
 N        9.5649984440       17.7319945716      -12.5260042000
 N        8.0090000000       18.6303506921      -15.0170042000
Al        9.5649984440       17.7319945716       -5.6413784000
Al        8.0090000000       18.6303506921       -8.1323784000
 N        9.5649984440       17.7319945716       -7.5440042000
 N        8.0090000000       18.6303506921      -10.0350042000
Al        9.5649984440       17.7319945716       -0.6593784000
Al        8.0090000000       18.6303506921       -3.1503784000
 N        9.5649984440       17.7319945716       -2.5620042000
 N        8.0090000000       18.6303506921       -5.0530042000
Al        9.5649984440       17.7319945716        4.3226216000
Al        8.0090000000       18.6303506921        1.8316216000
 N        9.5649984440       17.7319945716        2.4199958000
 N        8.0090000000       18.6303506921       -0.0710042000
Al        9.5649984440       17.7319945716        9.3046216000
Al        8.0090000000       18.6303506921        6.8136216000
 N        9.5649984440       17.7319945716        7.4019958000
 N        8.0090000000       18.6303506921        4.9109958000
Al        9.5649984440       17.7319945716       14.2866216000
Al        8.0090000000       18.6303506921       11.7956216000
 N        9.5649984440       17.7319945716       12.3839958000
 N        8.0090000000       18.6303506921        9.8929958000
Al        9.5649984440       17.7319945716       19.2686216000
Al        8.0090000000       18.6303506921       16.7776216000
 N        9.5649984440       17.7319945716       17.3659958000
 N        8.0090000000       18.6303506921       14.8749958000
 N        8.0090000000       18.6303506921       19.8569958000
Al       12.6769984440      -19.9990002205      -15.6053784000
Al       11.1210000000      -19.1006441000      -18.0963784000
 N       12.6769984440      -19.9990002205      -17.5080042000
 N       11.1210000000      -19.1006441000      -19.9990042000
Al       14.2329984440      -17.3039291639      -15.6053784000
Al       12.6770000000      -16.4055730434      -18.0963784000
 N       14.2329984440      -17.3039291639      -17.5080042000
 N       12.6770000000      -16.4055730434      -19.9990042000
Al       12.6769984440      -19.9990002205      -10.6233784000
Al       11.1210000000      -19.1006441000      -13.1143784000
 N       12.6769984440      -19.9990002205      -12.5260042000
 N       11.1210000000      -19.1006441000      -15.0170042000
Al       14.2329984440      -17.3039291639      -10.6233784000
Al       12.6770000000      -16.4055730434      -13.1143784000
 N       14.2329984440      -17.3039291639      -12.5260042000
 N       12.6770000000      -16.4055730434      -15.0170042000
Al       12.6769984440      -19.9990002205       -5.6413784000
Al       11.1210000000      -19.1006441000       -8.1323784000
 N       12.6769984440      -19.9990002205       -7.5440042000
 N       11.1210000000      -19.1006441000      -10.0350042000
Al       14.2329984440      -17.3039291639       -5.6413784000
Al       12.6770000000      -16.4055730434       -8.1323784000
 N       14.2329984440      -17.3039291639       -7.5440042000
 N       12.6770000000      -16.4055730434      -10.0350042000
Al       12.6769984440      -19.9990002205       -0.6593784000
Al       11.1210000000      -19.1006441000       -3.1503784000
 N       12.6769984440      -19.9990002205       -2.5620042000
 N       11.1210000000      -19.1006441000       -5.0530042000
Al       14.2329984440      -17.3039291639       -0.6593784000
Al       12.6770000000      -16.4055730434       -3.1503784000
 N       14.2329984440      -17.3039291639       -2.5620042000
 N       12.6770000000      -16.4055730434       -5.0530042000
Al       12.6769984440      -19.9990002205        4.3226216000
Al       11.1210000000      -19.1006441000        1.8316216000
 N       12.6769984440      -19.9990002205        2.4199958000
 N       11.1210000000      -19.1006441000       -0.0710042000
Al       14.2329984440      -17.3039291639        4.3226216000
Al       12.6770000000      -16.4055730434        1.8316216000
 N       14.2329984440      -17.3039291639        2.4199958000
 N       12.6770000000      -16.4055730434       -0.0710042000
Al       12.6769984440      -19.9990002205        9.3046216000
Al       11.1210000000      -19.1006441000        6.8136216000
 N       12.6769984440      -19.9990002205        7.4019958000
 N       11.1210000000      -19.1006441000        4.9109958000
Al       14.2329984440      -17.3039291639        9.3046216000
Al       12.6770000000      -16.4055730434        6.8136216000
 N       14.2329984440      -17.3039291639        7.4019958000
 N       12.6770000000      -16.4055730434        4.9109958000
Al       12.6769984440      -19.9990002205       14.2866216000
Al       11.1210000000      -19.1006441000       11.7956216000
 N       12.6769984440      -19.9990002205       12.3839958000
 N       11.1210000000      -19.1006441000        9.8929958000
Al       14.2329984440      -17.3039291639       14.2866216000
Al       12.6770000000      -16.4055730434       11.7956216000
 N       14.2329984440      -17.3039291639       12.3839958000
 N       12.6770000000      -16.4055730434        9.8929958000
Al       12.6769984440      -19.9990002205       19.2686216000
Al       11.1210000000      -19.1006441000       16.7776216000
 N       12.6769984440      -19.9990002205       17.3659958000
 N       11.1210000000      -19.1006441000       14.8749958000
Al       14.2329984440      -17.3039291639       19.2686216000
Al       12.6770000000      -16.4055730434       16.7776216000
 N       14.2329984440      -17.3039291639       17.3659958000
 N       12.6770000000      -16.4055730434       14.8749958000
 N       11.1210000000      -19.1006441000       19.8569958000
 N       12.6770000000      -16.4055730434       19.8569958000
Al       12.6769984440      -14.6088581073      -15.6053784000
Al       11.1210000000      -13.7105019868      -18.0963784000
 N       12.6769984440      -14.6088581073      -17.5080042000
 N       11.1210000000      -13.7105019868      -19.9990042000
Al       14.2329984440      -11.9137870508      -15.6053784000
Al       12.6770000000      -11.0154309303      -18.0963784000
 N       14.2329984440      -11.9137870508      -17.5080042000
 N       12.6770000000      -11.0154309303      -19.9990042000
Al       12.6769984440      -14.6088581073      -10.6233784000
Al       11.1210000000      -13.7105019868      -13.1143784000
 N       12.6769984440      -14.6088581073      -12.5260042000
 N       11.1210000000      -13.7105019868      -15.0170042000
Al       14.2329984440      -11.9137870508      -10.6233784000
Al       12.6770000000      -11.0154309303      -13.1143784000
 N       14.2329984440      -11.9137870508      -12.5260042000
 N       12.6770000000      -11.0154309303      -15.0170042000
Al       12.6769984440      -14.6088581073       -5.6413784000
Al       11.1210000000      -13.7105019868       -8.1323784000
 N       12.6769984440      -14.6088581073       -7.5440042000
 N       11.1210000000      -13.7105019868      -10.0350042000
Al       14.2329984440      -11.9137870508       -5.6413784000
Al       12.6770000000      -11.0154309303       -8.1323784000
 N       14.2329984440      -11.9137870508       -7.5440042000
 N       12.6770000000      -11.0154309303      -10.0350042000
Al       12.6769984440      -14.6088581073       -0.6593784000
Al       11.1210000000      -13.7105019868       -3.1503784000
 N       12.6769984440      -14.6088581073       -2.5620042000
 N       11.1210000000      -13.7105019868       -5.0530042000
Al       14.2329984440      -11.9137870508       -0.6593784000
Al       12.6770000000      -11.0154309303       -3.1503784000
 N       14.2329984440      -11.9137870508       -2.5620042000
 N       12.6770000000      -11.0154309303       -5.0530042000
Al       12.6769984440      -14.6088581073        4.3226216000
Al       11.1210000000      -13.7105019868        1.8316216000
 N       12.6769984440      -14.6088581073        2.4199958000
 N       11.1210000000      -13.7105019868       -0.0710042000
Al       14.2329984440      -11.9137870508        4.3226216000
Al       12.6770000000      -11.0154309303        1.8316216000
 N       14.2329984440      -11.9137870508        2.4199958000
 N       12.6770000000      -11.0154309303       -0.0710042000
Al       12.6769984440      -14.6088581073        9.3046216000
Al       11.1210000000      -13.7105019868        6.8136216000
 N       12.6769984440      -14.6088581073        7.4019958000
 N       11.1210000000      -13.7105019868        4.9109958000
Al       14.2329984440      -11.9137870508        9.3046216000
Al       12.6770000000      -11.0154309303        6.8136216000
 N       14.2329984440      -11.9137870508        7.4019958000
 N       12.6770000000      -11.0154309303        4.9109958000
Al       12.6769984440      -14.6088581073       14.2866216000
Al       11.1210000000      -13.7105019868       11.7956216000
 N       12.6769984440      -14.6088581073       12.3839958000
 N       11.1210000000      -13.7105019868        9.8929958000
Al       14.2329984440      -11.9137870508       14.2866216000
Al       12.6770000000      -11.0154309303       11.7956216000
 N       14.2329984440      -11.9137870508       12.3839958000
 N       12.6770000000      -11.0154309303        9.8929958000
Al       12.6769984440      -14.6088581073       19.2686216000
Al       11.1210000000      -13.7105019868       16.7776216000
 N       12.6769984440      -14.6088581073       17.3659958000
 N       11.1210000000      -13.7105019868       14.8749958000
Al       14.2329984440      -11.9137870508       19.2686216000
Al       12.6770000000      -11.0154309303       16.7776216000
 N       14.2329984440      -11.9137870508       17.3659958000
 N       12.6770000000      -11.0154309303       14.8749958000
 N       11.1210000000      -13.7105019868       19.8569958000
 N       12.6770000000      -11.0154309303       19.8569958000
Al       12.6769984440       -9.2187159942      -15.6053784000
Al       11.1210000000       -8.3203598737      -18.0963784000
 N       12.6769984440       -9.2187159942      -17.5080042000
 N       11.1210000000       -8.3203598737      -19.9990042000
Al       14.2329984440       -6.5236449376      -15.6053784000
Al       12.6770000000       -5.6252888171      -18.0963784000
 N       14.2329984440       -6.5236449376      -17.5080042000
 N       12.6770000000       -5.6252888171      -19.9990042000
Al       12.6769984440       -9.2187159942      -10.6233784000
Al       11.1210000000       -8.3203598737      -13.1143784000
 N       12.6769984440       -9.2187159942      -12.5260042000
 N       11.1210000000       -8.3203598737      -15.0170042000
Al       14.2329984440       -6.5236449376      -10.6233784000
Al       12.6770000000       -5.6252888171      -13.1143784000
 N       14.2329984440       -6.5236449376      -12.5260042000
 N       12.6770000000       -5.6252888171      -15.0170042000
Al       12.6769984440       -9.2187159942       -5.6413784000
Al       11.1210000000       -8.3203598737       -8.1323784000
 N       12.6769984440       -9.2187159942       -7.5440042000
 N       11.1210000000       -8.3203598737      -10.0350042000
Al       14.2329984440       -6.5236449376       -5.6413784000
Al       12.6770000000       -5.6252888171       -8.1323784000
 N       14.2329984440       -6.5236449376       -7.5440042000
 N       12.6770000000       -5.6252888171      -10.0350042000
Al       12.6769984440       -9.2187159942       -0.6593784000
Al       11.1210000000       -8.3203598737       -3.1503784000
 N       12.6769984440       -9.2187159942       -2.5620042000
 N       11.1210000000       -8.3203598737       -5.0530042000
Al       14.2329984440       -6.5236449376       -0.6593784000
Al       12.6770000000       -5.6252888171       -3.1503784000
 N       14.2329984440       -6.5236449376       -2.5620042000
 N       12.6770000000       -5.6252888171       -5.0530042000
Al       12.6769984440       -9.2187159942        4.3226216000
Al       11.1210000000       -8.3203598737        1.8316216000
 N       12.6769984440       -9.2187159942        2.4199958000
 N       11.1210000000       -8.3203598737       -0.0710042000
Al       14.2329984440       -6.5236449376        4.3226216000
Al       12.6770000000       -5.6252888171        1.8316216000
 N       14.2329984440       -6.5236449376        2.4199958000
 N       12.6770000000       -5.6252888171       -0.0710042000
Al       12.6769984440       -9.2187159942        9.3046216000
Al       11.1210000000       -8.3203598737        6.8136216000
 N       12.6769984440       -9.2187159942        7.4019958000
 N       11.1210000000       -8.3203598737        4.9109958000
Al       14.2329984440       -6.5236449376        9.3046216000
Al       12.6770000000       -5.6252888171        6.8136216000
 N       14.2329984440       -6.5236449376        7.4019958000
 N       12.6770000000       -5.6252888171        4.9109958000
Al       12.6769984440       -9.2187159942       14.2866216000
Al       11.1210000000       -8.3203598737       11.7956216000
 N       12.6769984440       -9.2187159942       12.3839958000
 N       11.1210000000       -8.3203598737        9.8929958000
Al       14.2329984440       -6.5236449376       14.2866216000
Al       12.6770000000       -5.6252888171       11.7956216000
 N       14.2329984440       -6.5236449376       12.3839958000
 N       12.6770000000       -5.6252888171        9.8929958000
Al       12.6769984440       -9.2187159942       19.2686216000
Al       11.1210000000       -8.3203598737       16.7776216000
 N       12.6769984440       -9.2187159942       17.3659958000
 N       11.1210000000       -8.3203598737       14.8749958000
Al       14.2329984440       -6.5236449376       19.2686216000
Al       12.6770000000       -5.6252888171       16.7776216000
 N       14.2329984440       -6.5236449376       17.3659958000
 N       12.6770000000       -5.6252888171       14.8749958000
 N       11.1210000000       -8.3203598737       19.8569958000
 N       12.6770000000       -5.6252888171       19.8569958000
Al       12.6769984440       -3.8285738810      -15.6053784000
Al       11.1210000000       -2.9302177605      -18.0963784000
 N       12.6769984440       -3.8285738810      -17.5080042000
 N       11.1210000000       -2.9302177605      -19.9990042000
Al       14.2329984440       -1.1335028245      -15.6053784000
Al       12.6770000000       -0.2351467040      -18.0963784000
 N       14.2329984440       -1.1335028245      -17.5080042000
 N       12.6770000000       -0.2351467040      -19.9990042000
Al       12.6769984440       -3.8285738810      -10.6233784000
Al       11.1210000000       -2.9302177605      -13.1143784000
 N       12.6769984440       -3.8285738810      -12.5260042000
 N       11.1210000000       -2.9302177605      -15.0170042000
Al       14.2329984440       -1.1335028245      -10.6233784000
Al       12.6770000000       -0.2351467040      -13.1143784000
 N       14.2329984440       -1.1335028245      -12.5260042000
 N       12.6770000000       -0.2351467040      -15.0170042000
Al       12.6769984440       -3.8285738810       -5.6413784000
Al       11.1210000000       -2.9302177605       -8.1323784000
 N       12.6769984440       -3.8285738810       -7.5440042000
 N       11.1210000000       -2.9302177605      -10.0350042000
Al       14.2329984440       -1.1335028245       -5.6413784000
Al       12.6770000000       -0.2351467040       -8.1323784000
 N       14.2329984440       -1.1335028245       -7.5440042000
 N       12.6770000000       -0.2351467040      -10.0350042000
Al       12.6769984440       -3.8285738810       -0.6593784000
Al       11.1210000000       -2.9302177605       -3.1503784000
 N       12.6769984440       -3.8285738810       -2.5620042000
 N       11.1210000000       -2.9302177605       -5.0530042000
Al       14.2329984440       -1.1335028245       -0.6593784000
Al       12.6770000000       -0.2351467040       -3.1503784000
 N       14.2329984440       -1.1335028245       -2.5620042000
 N       12.6770000000       -0.2351467040       -5.0530042000
Al       12.6769984440       -3.8285738810        4.3226216000
Al       11.1210000000       -2.9302177605        1.8316216000
 N       12.6769984440       -3.8285738810        2.4199958000
 N       11.1210000000       -2.9302177605       -0.0710042000
Al       14.2329984440       -1.1335028245        4.3226216000
Al       12.6770000000       -0.2351467040        1.8316216000
 N       14.2329984440       -1.1335028245        2.4199958000
 N       12.6770000000       -0.2351467040       -0.0710042000
Al       12.6769984440       -3.8285738810        9.3046216000
Al       11.1210000000       -2.9302177605        6.8136216000
 N       12.6769984440       -3.8285738810        7.4019958000
 N       11.1210000000       -2.9302177605        4.9109958000
Al       14.2329984440       -1.1335028245        9.3046216000
Al       12.6770000000       -0.2351467040        6.8136216000
 N       14.2329984440       -1.1335028245        7.4019958000
 N       12.6770000000       -0.2351467040        4.9109958000
Al       12.6769984440       -3.8285738810       14.2866216000
Al       11.1210000000       -2.9302177605       11.7956216000
 N       12.6769984440       -3.8285738810       12.3839958000
 N       11.1210000000       -2.9302177605        9.8929958000
Al       14.2329984440       -1.1335028245       14.2866216000
Al       12.6770000000       -0.2351467040       11.7956216000
 N       14.2329984440       -1.1335028245       12.3839958000
 N       12.6770000000       -0.2351467040        9.8929958000
Al       12.6769984440       -3.8285738810       19.2686216000
Al       11.1210000000       -2.9302177605       16.7776216000
 N       12.6769984440       -3.8285738810       17.3659958000
 N       11.1210000000       -2.9302177605       14.8749958000
Al       14.2329984440       -1.1335028245       19.2686216000
Al       12.6770000000       -0.2351467040       16.7776216000
 N       14.2329984440       -1.1335028245       17.3659958000
 N       12.6770000000       -0.2351467040       14.8749958000
 N       11.1210000000       -2.9302177605       19.8569958000
 N       12.6770000000       -0.2351467040       19.8569958000
Al       12.6769984440        1.5615682321      -15.6053784000
Al       11.1210000000        2.4599243526      -18.0963784000
 N       12.6769984440        1.5615682321      -17.5080042000
 N       11.1210000000        2.4599243526      -19.9990042000
Al       14.2329984440        4.2566392887      -15.6053784000
Al       12.6770000000        5.1549954092      -18.0963784000
 N       14.2329984440        4.2566392887      -17.5080042000
 N       12.6770000000        5.1549954092      -19.9990042000
Al       12.6769984440        1.5615682321      -10.6233784000
Al       11.1210000000        2.4599243526      -13.1143784000
 N       12.6769984440        1.5615682321      -12.5260042000
 N       11.1210000000        2.4599243526      -15.0170042000
Al       14.2329984440        4.2566392887      -10.6233784000
Al       12.6770000000        5.1549954092      -13.1143784000
 N       14.2329984440        4.2566392887      -12.5260042000
 N       12.6770000000        5.1549954092      -15.0170042000
Al       12.6769984440        1.5615682321       -5.6413784000
Al       11.1210000000        2.4599243526       -8.1323784000
 N       12.6769984440        1.5615682321       -7.5440042000
 N       11.1210000000        2.4599243526      -10.0350042000
Al       14.2329984440        4.2566392887       -5.6413784000
Al       12.6770000000        5.1549954092       -8.1323784000
 N       14.2329984440        4.2566392887       -7.5440042000
 N       12.6770000000        5.1549954092      -10.0350042000
Al       12.6769984440        1.5615682321       -0.6593784000
Al       11.1210000000        2.4599243526       -3.1503784000
 N       12.6769984440        1.5615682321       -2.5620042000
 N       11.1210000000        2.4599243526       -5.0530042000
Al       14.2329984440        4.2566392887       -0.6593784000
Al       12.6770000000        5.1549954092       -3.1503784000
 N       14.2329984440        4.2566392887       -2.5620042000
 N       12.6770000000        5.1549954092       -5.0530042000
Al       12.6769984440        1.5615682321        4.3226216000
Al       11.1210000000        2.4599243526        1.8316216000
 N       12.6769984440        1.5615682321        2.4199958000
 N       11.1210000000        2.4599243526       -0.0710042000
Al       14.2329984440        4.2566392887        4.3226216000
Al       12.6770000000        5.1549954092        1.8316216000
 N       14.2329984440        4.2566392887        2.4199958000
 N       12.6770000000        5.1549954092       -0.0710042000
Al       12.6769984440        1.5615682321        9.3046216000
Al       11.1210000000        2.4599243526        6.8136216000
 N       12.6769984440        1.5615682321        7.4019958000
 N       11.1210000000        2.4599243526        4.9109958000
Al       14.2329984440        4.2566392887        9.3046216000
Al       12.6770000000        5.1549954092        6.8136216000
 N       14.2329984440        4.2566392887        7.4019958000
 N       12.6770000000        5.1549954092        4.9109958000
Al       12.6769984440        1.5615682321       14.2866216000
Al       11.1210000000        2.4599243526       11.7956216000
 N       12.6769984440        1.5615682321       12.3839958000
 N       11.1210000000        2.4599243526        9.8929958000
Al       14.2329984440        4.2566392887       14.2866216000
Al       12.6770000000        5.1549954092       11.7956216000
 N       14.2329984440        4.2566392887       12.3839958000
 N       12.6770000000        5.1549954092        9.8929958000
Al       12.6769984440        1.5615682321       19.2686216000
Al       11.1210000000        2.4599243526       16.7776216000
 N       12.6769984440        1.5615682321       17.3659958000
 N       11.1210000000        2.4599243526       14.8749958000
Al       14.2329984440        4.2566392887       19.2686216000
Al       12.6770000000        5.1549954092       16.7776216000
 N       14.2329984440        4.2566392887       17.3659958000
 N       12.6770000000        5.1549954092       14.8749958000
 N       11.1210000000        2.4599243526       19.8569958000
 N       12.6770000000        5.1549954092       19.8569958000
Al       12.6769984440        6.9517103453      -15.6053784000
Al       11.1210000000        7.8500664658      -18.0963784000
 N       12.6769984440        6.9517103453      -17.5080042000
 N       11.1210000000        7.8500664658      -19.9990042000
Al       14.2329984440        9.6467814018      -15.6053784000
Al       12.6770000000       10.5451375223      -18.0963784000
 N       14.2329984440        9.6467814018      -17.5080042000
 N       12.6770000000       10.5451375223      -19.9990042000
Al       12.6769984440        6.9517103453      -10.6233784000
Al       11.1210000000        7.8500664658      -13.1143784000
 N       12.6769984440        6.9517103453      -12.5260042000
 N       11.1210000000        7.8500664658      -15.0170042000
Al       14.2329984440        9.6467814018      -10.6233784000
Al       12.6770000000       10.5451375223      -13.1143784000
 N       14.2329984440        9.6467814018      -12.5260042000
 N       12.6770000000       10.5451375223      -15.0170042000
Al       12.6769984440        6.9517103453       -5.6413784000
Al       11.1210000000        7.8500664658       -8.1323784000
 N       12.6769984440        6.9517103453       -7.5440042000
 N       11.1210000000        7.8500664658      -10.0350042000
Al       14.2329984440        9.6467814018       -5.6413784000
Al       12.6770000000       10.5451375223       -8.1323784000
 N       14.2329984440        9.6467814018       -7.5440042000
 N       12.6770000000       10.5451375223      -10.0350042000
Al       12.6769984440        6.9517103453       -0.6593784000
Al       11.1210000000        7.8500664658       -3.1503784000
 N       12.6769984440        6.9517103453       -2.5620042000
 N       11.1210000000        7.8500664658       -5.0530042000
Al       14.2329984440        9.6467814018       -0.6593784000
Al       12.6770000000       10.5451375223       -3.1503784000
 N       14.2329984440        9.6467814018       -2.5620042000
 N       12.6770000000       10.5451375223       -5.0530042000
Al       12.6769984440        6.9517103453        4.3226216000
Al       11.1210000000        7.8500664658        1.8316216000
 N       12.6769984440        6.9517103453        2.4199958000
 N       11.1210000000        7.8500664658       -0.0710042000
Al       14.2329984440        9.6467814018        4.3226216000
Al       12.6770000000       10.5451375223        1.8316216000
 N       14.2329984440        9.6467814018        2.4199958000
 N       12.6770000000       10.5451375223       -0.0710042000
Al       12.6769984440        6.9517103453        9.3046216000
Al       11.1210000000        7.8500664658        6.8136216000
 N       12.6769984440        6.9517103453        7.4019958000
 N       11.1210000000        7.8500664658        4.9109958000
Al       14.2329984440        9.6467814018        9.3046216000
Al       12.6770000000       10.5451375223        6.8136216000
 N       14.2329984440        9.6467814018        7.4019958000
 N       12.6770000000       10.5451375223        4.9109958000
Al       12.6769984440        6.9517103453       14.2866216000
Al       11.1210000000        7.8500664658       11.7956216000
 N       12.6769984440        6.9517103453       12.3839958000
 N       11.1210000000        7.8500664658        9.8929958000
Al       14.2329984440        9.6467814018       14.2866216000
Al       12.6770000000       10.5451375223       11.7956216000
 N       14.2329984440        9.6467814018       12.3839958000
 N       12.6770000000       10.5451375223        9.8929958000
Al       12.6769984440        6.9517103453       19.2686216000
Al       11.1210000000        7.8500664658       16.7776216000
 N       12.6769984440        6.9517103453       17.3659958000
 N       11.1210000000        7.8500664658       14.8749958000
Al       14.2329984440        9.6467814018       19.2686216000
Al       12.6770000000       10.5451375223       16.7776216000
 N       14.2329984440        9.6467814018       17.3659958000
 N       12.6770000000       10.5451375223       14.8749958000
 N       11.1210000000        7.8500664658       19.8569958000
 N       12.6770000000       10.5451375223       19.8569958000
Al       12.6769984440       12.3418524584      -15.6053784000
Al       11.1210000000       13.2402085789      -18.0963784000
 N       12.6769984440       12.3418524584      -17.5080042000
 N       11.1210000000       13.2402085789      -19.9990042000
Al       14.2329984440       15.0369235150      -15.6053784000
Al       12.6770000000       15.9352796355      -18.0963784000
 N       14.2329984440       15.0369235150      -17.5080042000
 N       12.6770000000       15.9352796355      -19.9990042000
Al       12.6769984440       12.3418524584      -10.6233784000
Al       11.1210000000       13.2402085789      -13.1143784000
 N       12.6769984440       12.3418524584      -12.5260042000
 N       11.1210000000       13.2402085789      -15.0170042000
Al       14.2329984440       15.0369235150      -10.6233784000
Al       12.6770000000       15.9352796355      -13.1143784000
 N       14.2329984440       15.0369235150      -12.5260042000
 N       12.6770000000       15.9352796355      -15.0170042000
Al       12.6769984440       12.3418524584       -5.6413784000
Al       11.1210000000       13.2402085789       -8.1323784000
 N       12.6769984440       12.3418524584       -7.5440042000
 N       11.1210000000       13.2402085789      -10.0350042000
Al       14.2329984440       15.0369235150       -5.6413784000
Al       12.6770000000       15.9352796355       -8.1323784000
 N       14.2329984440       15.0369235150       -7.5440042000
 N       12.6770000000       15.9352796355      -10.0350042000
Al       12.6769984440       12.3418524584       -0.6593784000
Al       11.1210000000       13.2402085789       -3.1503784000
 N       12.6769984440       12.3418524584       -2.5620042000
 N       11.1210000000       13.2402085789       -5.0530042000
Al       14.2329984440       15.0369235150       -0.6593784000
Al       12.6770000000       15.9352796355       -3.1503784000
 N       14.2329984440       15.0369235150       -2.5620042000
 N       12.6770000000       15.9352796355       -5.0530042000
Al       12.6769984440       12.3418524584        4.3226216000
Al       11.1210000000       13.2402085789        1.8316216000
 N       12.6769984440       12.3418524584        2.4199958000
 N       11.1210000000       13.2402085789       -0.0710042000
Al       14.2329984440       15.0369235150        4.3226216000
Al       12.6770000000       15.9352796355        1.8316216000
 N       14.2329984440       15.0369235150        2.4199958000
 N       12.6770000000       15.9352796355       -0.0710042000
Al       12.6769984440       12.3418524584        9.3046216000
Al       11.1210000000       13.2402085789        6.8136216000
 N       12.6769984440       12.3418524584        7.4019958000
 N       11.1210000000       13.2402085789        4.9109958000
Al       14.2329984440       15.0369235150        9.3046216000
Al       12.6770000000       15.9352796355        6.8136216000
 N       14.2329984440       15.0369235150        7.4019958000
 N       12.6770000000       15.9352796355        4.9109958000
Al       12.6769984440       12.3418524584       14.2866216000
Al       11.1210000000       13.2402085789       11.7956216000
 N       12.6769984440       12.3418524584       12.3839958000
 N       11.1210000000       13.2402085789        9.8929958000
Al       14.2329984440       15.0369235150       14.2866216000
Al       12.6770000000       15.9352796355       11.7956216000
 N       14.2329984440       15.0369235150       12.3839958000
 N       12.6770000000       15.9352796355        9.8929958000
Al       12.6769984440       12.3418524584       19.2686216000
Al       11.1210000000       13.2402085789       16.7776216000
 N       12.6769984440       12.3418524584       17.3659958000
 N       11.1210000000       13.2402085789       14.8749958000
Al       14.2329984440       15.0369235150       19.2686216000
Al       12.6770000000       15.9352796355       16.7776216000
 N       14.2329984440       15.0369235150       17.3659958000
 N       12.6770000000       15.9352796355       14.8749958000
 N       11.1210000000       13.2402085789       19.8569958000
 N       12.6770000000       15.9352796355       19.8569958000
Al       12.6769984440       17.7319945716      -15.6053784000
Al       11.1210000000       18.6303506921      -18.0963784000
 N       12.6769984440       17.7319945716      -17.5080042000
 N       11.1210000000       18.6303506921      -19.9990042000
Al       12.6769984440       17.7319945716      -10.6233784000
Al       11.1210000000       18.6303506921      -13.1143784000
 N       12.6769984440       17.7319945716      -12.5260042000
 N       11.1210000000       18.6303506921      -15.0170042000
Al       12.6769984440       17.7319945716       -5.6413784000
Al       11.1210000000       18.6303506921       -8.1323784000
 N       12.6769984440       17.7319945716       -7.5440042000
 N       11.1210000000       18.6303506921      -10.0350042000
Al       12.6769984440       17.7319945716       -0.6593784000
Al       11.1210000000       18.6303506921       -3.1503784000
 N       12.6769984440       17.7319945716       -2.5620042000
 N       11.1210000000       18.6303506921       -5.0530042000
Al       12.6769984440       17.7319945716        4.3226216000
Al       11.1210000000       18.6303506921        1.8316216000
 N       12.6769984440       17.7319945716        2.4199958000
 N       11.1210000000       18.6303506921       -0.0710042000
Al       12.6769984440       17.7319945716        9.3046216000
Al       11.1210000000       18.6303506921        6.8136216000
 N       12.6769984440       17.7319945716        7.4019958000
 N       11.1210000000       18.6303506921        4.9109958000
Al       12.6769984440       17.7319945716       14.2866216000
Al       11.1210000000       18.6303506921       11.7956216000
 N       12.6769984440       17.7319945716       12.3839958000
 N       11.1210000000       18.6303506921        9.8929958000
Al       12.6769984440       17.7319945716       19.2686216000
Al       11.1210000000       18.6303506921       16.7776216000
 N       12.6769984440       17.7319945716       17.3659958000
 N       11.1210000000       18.6303506921       14.8749958000
 N       11.1210000000       18.6303506921       19.8569958000
Al       15.7889984440      -19.9990002205      -15.6053784000
Al       14.2330000000      -19.1006441000      -18.0963784000
 N       15.7889984440      -19.9990002205      -17.5080042000
 N       14.2330000000      -19.1006441000      -19.9990042000
Al       17.3449984440      -17.3039291639      -15.6053784000
Al       15.7890000000      -16.4055730434      -18.0963784000
 N       17.3449984440      -17.3039291639      -17.5080042000
 N       15.7890000000      -16.4055730434      -19.9990042000
Al       15.7889984440      -19.9990002205      -10.6233784000
Al       14.2330000000      -19.1006441000      -13.1143784000
 N       15.7889984440      -19.9990002205      -12.5260042000
 N       14.2330000000      -19.1006441000      -15.0170042000
Al       17.3449984440      -17.3039291639      -10.6233784000
Al       15.7890000000      -16.4055730434      -13.1143784000
 N       17.3449984440      -17.3039291639      -12.5260042000
 N       15.7890000000      -16.4055730434      -15.0170042000
Al       15.7889984440      -19.9990002205       -5.6413784000
Al       14.2330000000      -19.1006441000       -8.1323784000
 N       15.7889984440      -19.9990002205       -7.5440042000
 N       14.2330000000      -19.1006441000      -10.0350042000
Al       17.3449984440      -17.3039291639       -5.6413784000
Al       15.7890000000      -16.4055730434       -8.1323784000
 N       17.3449984440      -17.3039291639       -7.5440042000
 N       15.7890000000      -16.4055730434      -10.0350042000
Al       15.7889984440      -19.9990002205       -0.6593784000
Al       14.2330000000      -19.1006441000       -3.1503784000
 N       15.7889984440      -19.9990002205       -2.5620042000
 N       14.2330000000      -19.1006441000       -5.0530042000
Al       17.3449984440      -17.3039291639       -0.6593784000
Al       15.7890000000      -16.4055730434       -3.1503784000
 N       17.3449984440      -17.3039291639       -2.5620042000
 N       15.7890000000      -16.4055730434       -5.0530042000
Al       15.7889984440      -19.9990002205        4.3226216000
Al       14.2330000000      -19.1006441000        1.8316216000
 N       15.7889984440      -19.9990002205        2.4199958000
 N       14.2330000000      -19.1006441000       -0.0710042000
Al       17.3449984440      -17.3039291639        4.3226216000
Al       15.7890000000      -16.4055730434        1.8316216000
 N       17.3449984440      -17.3039291639        2.4199958000
 N       15.7890000000      -16.4055730434       -0.0710042000
Al       15.7889984440      -19.9990002205        9.3046216000
Al       14.2330000000      -19.1006441000        6.8136216000
 N       15.7889984440      -19.9990002205        7.4019958000
 N       14.2330000000      -19.1006441000        4.9109958000
Al       17.3449984440      -17.3039291639        9.3046216000
Al       15.7890000000      -16.4055730434        6.8136216000
 N       17.3449984440      -17.3039291639        7.4019958000
 N       15.7890000000      -16.4055730434        4.9109958000
Al       15.7889984440      -19.9990002205       14.2866216000
Al       14.2330000000      -19.1006441000       11.7956216000
 N       15.7889984440      -19.9990002205       12.3839958000
 N       14.2330000000      -19.1006441000        9.8929958000
Al       17.3449984440      -17.3039291639       14.2866216000
Al       15.7890000000      -16.4055730434       11.7956216000
 N       17.3449984440      -17.3039291639       12.3839958000
 N       15.7890000000      -16.4055730434        9.8929958000
Al       15.7889984440      -19.9990002205       19.2686216000
Al       14.2330000000      -19.1006441000       16.7776216000
 N       15.7889984440      -19.9990002205       17.3659958000
 N       14.2330000000      -19.1006441000       14.8749958000
Al       17.3449984440      -17.3039291639       19.2686216000
Al       15.7890000000      -16.4055730434       16.7776216000
 N       17.3449984440      -17.3039291639       17.3659958000
 N       15.7890000000      -16.4055730434       14.8749958000
 N       14.2330000000      -19.1006441000       19.8569958000
 N       15.7890000000      -16.4055730434       19.8569958000
Al       15.7889984440      -14.6088581073      -15.6053784000
Al       14.2330000000      -13.7105019868      -18.0963784000
 N       15.7889984440      -14.6088581073      -17.5080042000
 N       14.2330000000      -13.7105019868      -19.9990042000
Al       17.3449984440      -11.9137870508      -15.6053784000
Al       15.7890000000      -11.0154309303      -18.0963784000
 N       17.3449984440      -11.9137870508      -17.5080042000
 N       15.7890000000      -11.0154309303      -19.9990042000
Al       15.7889984440      -14.6088581073      -10.6233784000
Al       14.2330000000      -13.7105019868      -13.1143784000
 N       15.7889984440      -14.6088581073      -12.5260042000
 N       14.2330000000      -13.7105019868      -15.0170042000
Al       17.3449984440      -11.9137870508      -10.6233784000
Al       15.7890000000      -11.0154309303      -13.1143784000
 N       17.3449984440      -11.9137870508      -12.5260042000
 N       15.7890000000      -11.0154309303      -15.0170042000
Al       15.7889984440      -14.6088581073       -5.6413784000
Al       14.2330000000      -13.7105019868       -8.1323784000
 N       15.7889984440      -14.6088581073       -7.5440042000
 N       14.2330000000      -13.7105019868      -10.0350042000
Al       17.3449984440      -11.9137870508       -5.6413784000
Al       15.7890000000      -11.0154309303       -8.1323784000
 N       17.3449984440      -11.9137870508       -7.5440042000
 N       15.7890000000      -11.0154309303      -10.0350042000
Al       15.7889984440      -14.6088581073       -0.6593784000
Al       14.2330000000      -13.7105019868       -3.1503784000
 N       15.7889984440      -14.6088581073       -2.5620042000
 N       14.2330000000      -13.7105019868       -5.0530042000
Al       17.3449984440      -11.9137870508       -0.6593784000
Al       15.7890000000      -11.0154309303       -3.1503784000
 N       17.3449984440      -11.9137870508       -2.5620042000
 N       15.7890000000      -11.0154309303       -5.0530042000
Al       15.7889984440      -14.6088581073        4.3226216000
Al       14.2330000000      -13.7105019868        1.8316216000
 N       15.7889984440      -14.6088581073        2.4199958000
 N       14.2330000000      -13.7105019868       -0.0710042000
Al       17.3449984440      -11.9137870508        4.3226216000
Al       15.7890000000      -11.0154309303        1.8316216000
 N       17.3449984440      -11.9137870508        2.4199958000
 N       15.7890000000      -11.0154309303       -0.0710042000
Al       15.7889984440      -14.6088581073        9.3046216000
Al       14.2330000000      -13.7105019868        6.8136216000
 N       15.7889984440      -14.6088581073        7.4019958000
 N       14.2330000000      -13.7105019868        4.9109958000
Al       17.3449984440      -11.9137870508        9.3046216000
Al       15.7890000000      -11.0154309303        6.8136216000
 N       17.3449984440      -11.9137870508        7.4019958000
 N       15.7890000000      -11.0154309303        4.9109958000
Al       15.7889984440      -14.6088581073       14.2866216000
Al       14.2330000000      -13.7105019868       11.7956216000
 N       15.7889984440      -14.6088581073       12.3839958000
 N       14.2330000000      -13.7105019868        9.8929958000
Al       17.3449984440      -11.9137870508       14.2866216000
Al       15.7890000000      -11.0154309303       11.7956216000
 N       17.3449984440      -11.9137870508       12.3839958000
 N       15.7890000000      -11.0154309303        9.8929958000
Al       15.7889984440      -14.6088581073       19.2686216000
Al       14.2330000000      -13.7105019868       16.7776216000
 N       15.7889984440      -14.6088581073       17.3659958000
 N       14.2330000000      -13.7105019868       14.8749958000
Al       17.3449984440      -11.9137870508       19.2686216000
Al       15.7890000000      -11.0154309303       16.7776216000
 N       17.3449984440      -11.9137870508       17.3659958000
 N       15.7890000000      -11.0154309303       14.8749958000
 N       14.2330000000      -13.7105019868       19.8569958000
 N       15.7890000000      -11.0154309303       19.8569958000
Al       15.7889984440       -9.2187159942      -15.6053784000
Al       14.2330000000       -8.3203598737      -18.0963784000
 N       15.7889984440       -9.2187159942      -17.5080042000
 N       14.2330000000       -8.3203598737      -19.9990042000
Al       17.3449984440       -6.5236449376      -15.6053784000
Al       15.7890000000       -5.6252888171      -18.0963784000
 N       17.3449984440       -6.5236449376      -17.5080042000
 N       15.7890000000       -5.6252888171      -19.9990042000
Al       15.7889984440       -9.2187159942      -10.6233784000
Al       14.2330000000       -8.3203598737      -13.1143784000
 N       15.7889984440       -9.2187159942      -12.5260042000
 N       14.2330000000       -8.3203598737      -15.0170042000
Al       17.3449984440       -6.5236449376      -10.6233784000
Al       15.7890000000       -5.6252888171      -13.1143784000
 N       17.3449984440       -6.5236449376      -12.5260042000
 N       15.7890000000       -5.6252888171      -15.0170042000
Al       15.7889984440       -9.2187159942       -5.6413784000
Al       14.2330000000       -8.3203598737       -8.1323784000
 N       15.7889984440       -9.2187159942       -7.5440042000
 N       14.2330000000       -8.3203598737      -10.0350042000
Al       17.3449984440       -6.5236449376       -5.6413784000
Al       15.7890000000       -5.6252888171       -8.1323784000
 N       17.3449984440       -6.5236449376       -7.5440042000
 N       15.7890000000       -5.6252888171      -10.0350042000
Al       15.7889984440       -9.2187159942       -0.6593784000
Al       14.2330000000       -8.3203598737       -3.1503784000
 N       15.7889984440       -9.2187159942       -2.5620042000
 N       14.2330000000       -8.3203598737       -5.0530042000
Al       17.3449984440       -6.5236449376       -0.6593784000
Al       15.7890000000       -5.6252888171       -3.1503784000
 N       17.3449984440       -6.5236449376       -2.5620042000
 N       15.7890000000       -5.6252888171       -5.0530042000
Al       15.7889984440       -9.2187159942        4.3226216000
Al       14.2330000000       -8.3203598737        1.8316216000
 N       15.7889984440       -9.2187159942        2.4199958000
 N       14.2330000000       -8.3203598737       -0.0710042000
Al       17.3449984440       -6.5236449376        4.3226216000
Al       15.7890000000       -5.6252888171        1.8316216000
 N       17.3449984440       -6.5236449376        2.4199958000
 N       15.7890000000       -5.6252888171       -0.0710042000
Al       15.7889984440       -9.2187159942        9.3046216000
Al       14.2330000000       -8.3203598737        6.8136216000
 N       15.7889984440       -9.2187159942        7.4019958000
 N       14.2330000000       -8.3203598737        4.9109958000
Al       17.3449984440       -6.5236449376        9.3046216000
Al       15.7890000000       -5.6252888171        6.8136216000
 N       17.3449984440       -6.5236449376        7.4019958000
 N       15.7890000000       -5.6252888171        4.9109958000
Al       15.7889984440       -9.2187159942       14.2866216000
Al       14.2330000000       -8.3203598737       11.7956216000
 N       15.7889984440       -9.2187159942       12.3839958000
 N       14.2330000000       -8.3203598737        9.8929958000
Al       17.3449984440       -6.5236449376       14.2866216000
Al       15.7890000000       -5.6252888171       11.7956216000
 N       17.3449984440       -6.5236449376       12.3839958000
 N       15.7890000000       -5.6252888171        9.8929958000
Al       15.7889984440       -9.2187159942       19.2686216000
Al       14.2330000000       -8.3203598737       16.7776216000
 N       15.7889984440       -9.2187159942       17.3659958000
 N       14.2330000000       -8.3203598737       14.8749958000
Al       17.3449984440       -6.5236449376       19.2686216000
Al       15.7890000000       -5.6252888171       16.7776216000
 N       17.3449984440       -6.5236449376       17.3659958000
 N       15.7890000000       -5.6252888171       14.8749958000
 N       14.2330000000       -8.3203598737       19.8569958000
 N       15.7890000000       -5.6252888171       19.8569958000
Al       15.7889984440       -3.8285738810      -15.6053784000
Al       14.2330000000       -2.9302177605      -18.0963784000
 N       15.7889984440       -3.8285738810      -17.5080042000
 N       14.2330000000       -2.9302177605      -19.9990042000
Al       17.3449984440       -1.1335028245      -15.6053784000
Al       15.7890000000       -0.2351467040      -18.0963784000
 N       17.3449984440       -1.1335028245      -17.5080042000
 N       15.7890000000       -0.2351467040      -19.9990042000
Al       15.7889984440       -3.8285738810      -10.6233784000
Al       14.2330000000       -2.9302177605      -13.1143784000
 N       15.7889984440       -3.8285738810      -12.5260042000
 N       14.2330000000       -2.9302177605      -15.0170042000
Al       17.3449984440       -1.1335028245      -10.6233784000
Al       15.7890000000       -0.2351467040      -13.1143784000
 N       17.3449984440       -1.1335028245      -12.5260042000
 N       15.7890000000       -0.2351467040      -15.0170042000
Al       15.7889984440       -3.8285738810       -5.6413784000
Al       14.2330000000       -2.9302177605       -8.1323784000
 N       15.7889984440       -3.8285738810       -7.5440042000
 N       14.2330000000       -2.9302177605      -10.0350042000
Al       17.3449984440       -1.1335028245       -5.6413784000
Al       15.7890000000       -0.2351467040       -8.1323784000
 N       17.3449984440       -1.1335028245       -7.5440042000
 N       15.7890000000       -0.2351467040      -10.0350042000
Al       15.7889984440       -3.8285738810       -0.6593784000
Al       14.2330000000       -2.9302177605       -3.1503784000
 N       15.7889984440       -3.8285738810       -2.5620042000
 N       14.2330000000       -2.9302177605       -5.0530042000
Al       17.3449984440       -1.1335028245       -0.6593784000
Al       15.7890000000       -0.2351467040       -3.1503784000
 N       17.3449984440       -1.1335028245       -2.5620042000
 N       15.7890000000       -0.2351467040       -5.0530042000
Al       15.7889984440       -3.8285738810        4.3226216000
Al       14.2330000000       -2.9302177605        1.8316216000
 N       15.7889984440       -3.8285738810        2.4199958000
 N       14.2330000000       -2.9302177605       -0.0710042000
Al       17.3449984440       -1.1335028245        4.3226216000
Al       15.7890000000       -0.2351467040        1.8316216000
 N       17.3449984440       -1.1335028245        2.4199958000
 N       15.7890000000       -0.2351467040       -0.0710042000
Al       15.7889984440       -3.8285738810        9.3046216000
Al       14.2330000000       -2.9302177605        6.8136216000
 N       15.7889984440       -3.8285738810        7.4019958000
 N       14.2330000000       -2.9302177605        4.9109958000
Al       17.3449984440       -1.1335028245        9.3046216000
Al       15.7890000000       -0.2351467040        6.8136216000
 N       17.3449984440       -1.1335028245        7.4019958000
 N       15.7890000000       -0.2351467040        4.9109958000
Al       15.7889984440       -3.8285738810       14.2866216000
Al       14.2330000000       -2.9302177605       11.7956216000
 N       15.7889984440       -3.8285738810       12.3839958000
 N       14.2330000000       -2.9302177605        9.8929958000
Al       17.3449984440       -1.1335028245       14.2866216000
Al       15.7890000000       -0.2351467040       11.7956216000
 N       17.3449984440       -1.1335028245       12.3839958000
 N       15.7890000000       -0.2351467040        9.8929958000
Al       15.7889984440       -3.8285738810       19.2686216000
Al       14.2330000000       -2.9302177605       16.7776216000
 N       15.7889984440       -3.8285738810       17.3659958000
 N       14.2330000000       -2.9302177605       14.8749958000
Al       17.3449984440       -1.1335028245       19.2686216000
Al       15.7890000000       -0.2351467040       16.7776216000
 N       17.3449984440       -1.1335028245       17.3659958000
 N       15.7890000000       -0.2351467040       14.8749958000
 N       14.2330000000       -2.9302177605       19.8569958000
 N       15.7890000000       -0.2351467040       19.8569958000
Al       15.7889984440        1.5615682321      -15.6053784000
Al       14.2330000000        2.4599243526      -18.0963784000
 N       15.7889984440        1.5615682321      -17.5080042000
 N       14.2330000000        2.4599243526      -19.9990042000
Al       17.3449984440        4.2566392887      -15.6053784000
Al       15.7890000000        5.1549954092      -18.0963784000
 N       17.3449984440        4.2566392887      -17.5080042000
 N       15.7890000000        5.1549954092      -19.9990042000
Al       15.7889984440        1.5615682321      -10.6233784000
Al       14.2330000000        2.4599243526      -13.1143784000
 N       15.7889984440        1.5615682321      -12.5260042000
 N       14.2330000000        2.4599243526      -15.0170042000
Al       17.3449984440        4.2566392887      -10.6233784000
Al       15.7890000000        5.1549954092      -13.1143784000
 N       17.3449984440        4.2566392887      -12.5260042000
 N       15.7890000000        5.1549954092      -15.0170042000
Al       15.7889984440        1.5615682321       -5.6413784000
Al       14.2330000000        2.4599243526       -8.1323784000
 N       15.7889984440        1.5615682321       -7.5440042000
 N       14.2330000000        2.4599243526      -10.0350042000
Al       17.3449984440        4.2566392887       -5.6413784000
Al       15.7890000000        5.1549954092       -8.1323784000
 N       17.3449984440        4.2566392887       -7.5440042000
 N       15.7890000000        5.1549954092      -10.0350042000
Al       15.7889984440        1.5615682321       -0.6593784000
Al       14.2330000000        2.4599243526       -3.1503784000
 N       15.7889984440        1.5615682321       -2.5620042000
 N       14.2330000000        2.4599243526       -5.0530042000
Al       17.3449984440        4.2566392887       -0.6593784000
Al       15.7890000000        5.1549954092       -3.1503784000
 N       17.3449984440        4.2566392887       -2.5620042000
 N       15.7890000000        5.1549954092       -5.0530042000
Al       15.7889984440        1.5615682321        4.3226216000
Al       14.2330000000        2.4599243526        1.8316216000
 N       15.7889984440        1.5615682321        2.4199958000
 N       14.2330000000        2.4599243526       -0.0710042000
Al       17.3449984440        4.2566392887        4.3226216000
Al       15.7890000000        5.1549954092        1.8316216000
 N       17.3449984440        4.2566392887        2.4199958000
 N       15.7890000000        5.1549954092       -0.0710042000
Al       15.7889984440        1.5615682321        9.3046216000
Al       14.2330000000        2.4599243526        6.8136216000
 N       15.7889984440        1.5615682321        7.4019958000
 N       14.2330000000        2.4599243526        4.9109958000
Al       17.3449984440        4.2566392887        9.3046216000
Al       15.7890000000        5.1549954092        6.8136216000
 N       17.3449984440        4.2566392887        7.4019958000
 N       15.7890000000        5.1549954092        4.9109958000
Al       15.7889984440        1.5615682321       14.2866216000
Al       14.2330000000        2.4599243526       11.7956216000
 N       15.7889984440        1.5615682321       12.3839958000
 N       14.2330000000        2.4599243526        9.8929958000
Al       17.3449984440        4.2566392887       14.2866216000
Al       15.7890000000        5.1549954092       11.7956216000
 N       17.3449984440        4.2566392887       12.3839958000
 N       15.7890000000        5.1549954092        9.8929958000
Al       15.7889984440        1.5615682321       19.2686216000
Al       14.2330000000        2.4599243526       16.7776216000
 N       15.7889984440        1.5615682321       17.3659958000
 N       14.2330000000        2.4599243526       14.8749958000
Al       17.3449984440        4.2566392887       19.2686216000
Al       15.7890000000        5.1549954092       16.7776216000
 N       17.3449984440        4.2566392887       17.3659958000
 N       15.7890000000        5.1549954092       14.8749958000
 N       14.2330000000        2.4599243526       19.8569958000
 N       15.7890000000        5.1549954092       19.8569958000
Al       15.7889984440        6.9517103453      -15.6053784000
Al       14.2330000000        7.8500664658      -18.0963784000
 N       15.7889984440        6.9517103453      -17.5080042000
 N       14.2330000000        7.8500664658      -19.9990042000
Al       17.3449984440        9.6467814018      -15.6053784000
Al       15.7890000000       10.5451375223      -18.0963784000
 N       17.3449984440        9.6467814018      -17.5080042000
 N       15.7890000000       10.5451375223      -19.9990042000
Al       15.7889984440        6.9517103453      -10.6233784000
Al       14.2330000000        7.8500664658      -13.1143784000
 N       15.7889984440        6.9517103453      -12.5260042000
 N       14.2330000000        7.8500664658      -15.0170042000
Al       17.3449984440        9.6467814018      -10.6233784000
Al       15.7890000000       10.5451375223      -13.1143784000
 N       17.3449984440        9.6467814018      -12.5260042000
 N       15.7890000000       10.5451375223      -15.0170042000
Al       15.7889984440        6.9517103453       -5.6413784000
Al       14.2330000000        7.8500664658       -8.1323784000
 N       15.7889984440        6.9517103453       -7.5440042000
 N       14.2330000000        7.8500664658      -10.0350042000
Al       17.3449984440        9.6467814018       -5.6413784000
Al       15.7890000000       10.5451375223       -8.1323784000
 N       17.3449984440        9.6467814018       -7.5440042000
 N       15.7890000000       10.5451375223      -10.0350042000
Al       15.7889984440        6.9517103453       -0.6593784000
Al       14.2330000000        7.8500664658       -3.1503784000
 N       15.7889984440        6.9517103453       -2.5620042000
 N       14.2330000000        7.8500664658       -5.0530042000
Al       17.3449984440        9.6467814018       -0.6593784000
Al       15.7890000000       10.5451375223       -3.1503784000
 N       17.3449984440        9.6467814018       -2.5620042000
 N       15.7890000000       10.5451375223       -5.0530042000
Al       15.7889984440        6.9517103453        4.3226216000
Al       14.2330000000        7.8500664658        1.8316216000
 N       15.7889984440        6.9517103453        2.4199958000
 N       14.2330000000        7.8500664658       -0.0710042000
Al       17.3449984440        9.6467814018        4.3226216000
Al       15.7890000000       10.5451375223        1.8316216000
 N       17.3449984440        9.6467814018        2.4199958000
 N       15.7890000000       10.5451375223       -0.0710042000
Al       15.7889984440        6.9517103453        9.3046216000
Al       14.2330000000        7.8500664658        6.8136216000
 N       15.7889984440        6.9517103453        7.4019958000
 N       14.2330000000        7.8500664658        4.9109958000
Al       17.3449984440        9.6467814018        9.3046216000
Al       15.7890000000       10.5451375223        6.8136216000
 N       17.3449984440        9.6467814018        7.4019958000
 N       15.7890000000       10.5451375223        4.9109958000
Al       15.7889984440        6.9517103453       14.2866216000
Al       14.2330000000        7.8500664658       11.7956216000
 N       15.7889984440        6.9517103453       12.3839958000
 N       14.2330000000        7.8500664658        9.8929958000
Al       17.3449984440        9.6467814018       14.2866216000
Al       15.7890000000       10.5451375223       11.7956216000
 N       17.3449984440        9.6467814018       12.3839958000
 N       15.7890000000       10.5451375223        9.8929958000
Al       15.7889984440        6.9517103453       19.2686216000
Al       14.2330000000        7.8500664658       16.7776216000
 N       15.7889984440        6.9517103453       17.3659958000
 N       14.2330000000        7.8500664658       14.8749958000
Al       17.3449984440        9.6467814018       19.2686216000
Al       15.7890000000       10.5451375223       16.7776216000
 N       17.3449984440        9.6467814018       17.3659958000
 N       15.7890000000       10.5451375223       14.8749958000
 N       14.2330000000        7.8500664658       19.8569958000
 N       15.7890000000       10.5451375223       19.8569958000
Al       15.7889984440       12.3418524584      -15.6053784000
Al       14.2330000000       13.2402085789      -18.0963784000
 N       15.7889984440       12.3418524584      -17.5080042000
 N       14.2330000000       13.2402085789      -19.9990042000
Al       17.3449984440       15.0369235150      -15.6053784000
Al       15.7890000000       15.9352796355      -18.0963784000
 N       17.3449984440       15.0369235150      -17.5080042000
 N       15.7890000000       15.9352796355      -19.9990042000
Al       15.7889984440       12.3418524584      -10.6233784000
Al       14.2330000000       13.2402085789      -13.1143784000
 N       15.7889984440       12.3418524584      -12.5260042000
 N       14.2330000000       13.2402085789      -15.0170042000
Al       17.3449984440       15.0369235150      -10.6233784000
Al       15.7890000000       15.9352796355      -13.1143784000
 N       17.3449984440       15.0369235150      -12.5260042000
 N       15.7890000000       15.9352796355      -15.0170042000
Al       15.7889984440       12.3418524584       -5.6413784000
Al       14.2330000000       13.2402085789       -8.1323784000
 N       15.7889984440       12.3418524584       -7.5440042000
 N       14.2330000000       13.2402085789      -10.0350042000
Al       17.3449984440       15.0369235150       -5.6413784000
Al       15.7890000000       15.9352796355       -8.1323784000
 N       17.3449984440       15.0369235150       -7.5440042000
 N       15.7890000000       15.9352796355      -10.0350042000
Al       15.7889984440       12.3418524584       -0.6593784000
Al       14.2330000000       13.2402085789       -3.1503784000
 N       15.7889984440       12.3418524584       -2.5620042000
 N       14.2330000000       13.2402085789       -5.0530042000
Al       17.3449984440       15.0369235150       -0.6593784000
Al       15.7890000000       15.9352796355       -3.1503784000
 N       17.3449984440       15.0369235150       -2.5620042000
 N       15.7890000000       15.9352796355       -5.0530042000
Al       15.7889984440       12.3418524584        4.3226216000
Al       14.2330000000       13.2402085789        1.8316216000
 N       15.7889984440       12.3418524584        2.4199958000
 N       14.2330000000       13.2402085789       -0.0710042000
Al       17.3449984440       15.0369235150        4.3226216000
Al       15.7890000000       15.9352796355        1.8316216000
 N       17.3449984440       15.0369235150        2.4199958000
 N       15.7890000000       15.9352796355       -0.0710042000
Al       15.7889984440       12.3418524584        9.3046216000
Al       14.2330000000       13.2402085789        6.8136216000
 N       15.7889984440       12.3418524584        7.4019958000
 N       14.2330000000       13.2402085789        4.9109958000
Al       17.3449984440       15.0369235150        9.3046216000
Al       15.7890000000       15.9352796355        6.8136216000
 N       17.3449984440       15.0369235150        7.4019958000
 N       15.7890000000       15.9352796355        4.9109958000
Al       15.7889984440       12.3418524584       14.2866216000
Al       14.2330000000       13.2402085789       11.7956216000
 N       15.7889984440       12.3418524584       12.3839958000
 N       14.2330000000       13.2402085789        9.8929958000
Al       17.3449984440       15.0369235150       14.2866216000
Al       15.7890000000       15.9352796355       11.7956216000
 N       17.3449984440       15.0369235150       12.3839958000
 N       15.7890000000       15.9352796355        9.8929958000
Al       15.7889984440       12.3418524584       19.2686216000
Al       14.2330000000       13.2402085789       16.7776216000
 N       15.7889984440       12.3418524584       17.3659958000
 N       14.2330000000       13.2402085789       14.8749958000
Al       17.3449984440       15.0369235150       19.2686216000
Al       15.7890000000       15.9352796355       16.7776216000
 N       17.3449984440       15.0369235150       17.3659958000
 N       15.7890000000       15.9352796355       14.8749958000
 N       14.2330000000       13.2402085789       19.8569958000
 N       15.7890000000       15.9352796355       19.8569958000
Al       15.7889984440       17.7319945716      -15.6053784000
Al       14.2330000000       18.6303506921      -18.0963784000
 N       15.7889984440       17.7319945716      -17.5080042000
 N       14.2330000000       18.6303506921      -19.9990042000
Al       15.7889984440       17.7319945716      -10.6233784000
Al       14.2330000000       18.6303506921      -13.1143784000
 N       15.7889984440       17.7319945716      -12.5260042000
 N       14.2330000000       18.6303506921      -15.0170042000
Al       15.7889984440       17.7319945716       -5.6413784000
Al       14.2330000000       18.6303506921       -8.1323784000
 N       15.7889984440       17.7319945716       -7.5440042000
 N       14.2330000000       18.6303506921      -10.0350042000
Al       15.7889984440       17.7319945716       -0.6593784000
Al       14.2330000000       18.6303506921       -3.1503784000
 N       15.7889984440       17.7319945716       -2.5620042000
 N       14.2330000000       18.6303506921       -5.0530042000
Al       15.7889984440       17.7319945716        4.3226216000
Al       14.2330000000       18.6303506921        1.8316216000
 N       15.7889984440       17.7319945716        2.4199958000
 N       14.2330000000       18.6303506921       -0.0710042000
Al       15.7889984440       17.7319945716        9.3046216000
Al       14.2330000000       18.6303506921        6.8136216000
 N       15.7889984440       17.7319945716        7.4019958000
 N       14.2330000000       18.6303506921        4.9109958000
Al       15.7889984440       17.7319945716       14.2866216000
Al       14.2330000000       18.6303506921       11.7956216000
 N       15.7889984440       17.7319945716       12.3839958000
 N       14.2330000000       18.6303506921        9.8929958000
Al       15.7889984440       17.7319945716       19.2686216000
Al       14.2330000000       18.6303506921       16.7776216000
 N       15.7889984440       17.7319945716       17.3659958000
 N       14.2330000000       18.6303506921       14.8749958000
 N       14.2330000000       18.6303506921       19.8569958000
Al       18.9009984440      -19.9990002205      -15.6053784000
Al       17.3450000000      -19.1006441000      -18.0963784000
 N       18.9009984440      -19.9990002205      -17.5080042000
 N       17.3450000000      -19.1006441000      -19.9990042000
Al       18.9010000000      -16.4055730434      -18.0963784000
 N       18.9010000000      -16.4055730434      -19.9990042000
Al       18.9009984440      -19.9990002205      -10.6233784000
Al       17.3450000000      -19.1006441000      -13.1143784000
 N       18.9009984440      -19.9990002205      -12.5260042000
 N       17.3450000000      -19.1006441000      -15.0170042000
Al       18.9010000000      -16.4055730434      -13.1143784000
 N       18.9010000000      -16.4055730434      -15.0170042000
Al       18.9009984440      -19.9990002205       -5.6413784000
Al       17.3450000000      -19.1006441000       -8.1323784000
 N       18.9009984440      -19.9990002205       -7.5440042000
 N       17.3450000000      -19.1006441000      -10.0350042000
Al       18.9010000000      -16.4055730434       -8.1323784000
 N       18.9010000000      -16.4055730434      -10.0350042000
Al       18.9009984440      -19.9990002205       -0.6593784000
Al       17.3450000000      -19.1006441000       -3.1503784000
 N       18.9009984440      -19.9990002205       -2.5620042000
 N       17.3450000000      -19.1006441000       -5.0530042000
Al       18.9010000000      -16.4055730434       -3.1503784000
 N       18.9010000000      -16.4055730434       -5.0530042000
Al       18.9009984440      -19.9990002205        4.3226216000
Al       17.3450000000      -19.1006441000        1.8316216000
 N       18.9009984440      -19.9990002205        2.4199958000
 N       17.3450000000      -19.1006441000       -0.0710042000
Al       18.9010000000      -16.4055730434        1.8316216000
 N       18.9010000000      -16.4055730434       -0.0710042000
Al       18.9009984440      -19.9990002205        9.3046216000
Al       17.3450000000      -19.1006441000        6.8136216000
 N       18.9009984440      -19.9990002205        7.4019958000
 N       17.3450000000      -19.1006441000        4.9109958000
Al       18.9010000000      -16.4055730434        6.8136216000
 N       18.9010000000      -16.4055730434        4.9109958000
Al       18.9009984440      -19.9990002205       14.2866216000
Al       17.3450000000      -19.1006441000       11.7956216000
 N       18.9009984440      -19.9990002205       12.3839958000
 N       17.3450000000      -19.1006441000        9.8929958000
Al       18.9010000000      -16.4055730434       11.7956216000
 N       18.9010000000      -16.4055730434        9.8929958000
Al       18.9009984440      -19.9990002205       19.2686216000
Al       17.3450000000      -19.1006441000       16.7776216000
 N       18.9009984440      -19.9990002205       17.3659958000
 N       17.3450000000      -19.1006441000       14.8749958000
Al       18.9010000000      -16.4055730434       16.7776216000
 N       18.9010000000      -16.4055730434       14.8749958000
 N       17.3450000000      -19.1006441000       19.8569958000
 N       18.9010000000      -16.4055730434       19.8569958000
Al       18.9009984440      -14.6088581073      -15.6053784000
Al       17.3450000000      -13.7105019868      -18.0963784000
 N       18.9009984440      -14.6088581073      -17.5080042000
 N       17.3450000000      -13.7105019868      -19.9990042000
Al       18.9010000000      -11.0154309303      -18.0963784000
 N       18.9010000000      -11.0154309303      -19.9990042000
Al       18.9009984440      -14.6088581073      -10.6233784000
Al       17.3450000000      -13.7105019868      -13.1143784000
 N       18.9009984440      -14.6088581073      -12.5260042000
 N       17.3450000000      -13.7105019868      -15.0170042000
Al       18.9010000000      -11.0154309303      -13.1143784000
 N       18.9010000000      -11.0154309303      -15.0170042000
Al       18.9009984440      -14.6088581073       -5.6413784000
Al       17.3450000000      -13.7105019868       -8.1323784000
 N       18.9009984440      -14.6088581073       -7.5440042000
 N       17.3450000000      -13.7105019868      -10.0350042000
Al       18.9010000000      -11.0154309303       -8.1323784000
 N       18.9010000000      -11.0154309303      -10.0350042000
Al       18.9009984440      -14.6088581073       -0.6593784000
Al       17.3450000000      -13.7105019868       -3.1503784000
 N       18.9009984440      -14.6088581073       -2.5620042000
 N       17.3450000000      -13.7105019868       -5.0530042000
Al       18.9010000000      -11.0154309303       -3.1503784000
 N       18.9010000000      -11.0154309303       -5.0530042000
Al       18.9009984440      -14.6088581073        4.3226216000
Al       17.3450000000      -13.7105019868        1.8316216000
 N       18.9009984440      -14.6088581073        2.4199958000
 N       17.3450000000      -13.7105019868       -0.0710042000
Al       18.9010000000      -11.0154309303        1.8316216000
 N       18.9010000000      -11.0154309303       -0.0710042000
Al       18.9009984440      -14.6088581073        9.3046216000
Al       17.3450000000      -13.7105019868        6.8136216000
 N       18.9009984440      -14.6088581073        7.4019958000
 N       17.3450000000      -13.7105019868        4.9109958000
Al       18.9010000000      -11.0154309303        6.8136216000
 N       18.9010000000      -11.0154309303        4.9109958000
Al       18.9009984440      -14.6088581073       14.2866216000
Al       17.3450000000      -13.7105019868       11.7956216000
 N       18.9009984440      -14.6088581073       12.3839958000
 N       17.3450000000      -13.7105019868        9.8929958000
Al       18.9010000000      -11.0154309303       11.7956216000
 N       18.9010000000      -11.0154309303        9.8929958000
Al       18.9009984440      -14.6088581073       19.2686216000
Al       17.3450000000      -13.7105019868       16.7776216000
 N       18.9009984440      -14.6088581073       17.3659958000
 N       17.3450000000      -13.7105019868       14.8749958000
Al       18.9010000000      -11.0154309303       16.7776216000
 N       18.9010000000      -11.0154309303       14.8749958000
 N       17.3450000000      -13.7105019868       19.8569958000
 N       18.9010000000      -11.0154309303       19.8569958000
Al       18.9009984440       -9.2187159942      -15.6053784000
Al       17.3450000000       -8.3203598737      -18.0963784000
 N       18.9009984440       -9.2187159942      -17.5080042000
 N       17.3450000000       -8.3203598737      -19.9990042000
Al       18.9010000000       -5.6252888171      -18.0963784000
 N       18.9010000000       -5.6252888171      -19.9990042000
Al       18.9009984440       -9.2187159942      -10.6233784000
Al       17.3450000000       -8.3203598737      -13.1143784000
 N       18.9009984440       -9.2187159942      -12.5260042000
 N       17.3450000000       -8.3203598737      -15.0170042000
Al       18.9010000000       -5.6252888171      -13.1143784000
 N       18.9010000000       -5.6252888171      -15.0170042000
Al       18.9009984440       -9.2187159942       -5.6413784000
Al       17.3450000000       -8.3203598737       -8.1323784000
 N       18.9009984440       -9.2187159942       -7.5440042000
 N       17.3450000000       -8.3203598737      -10.0350042000
Al       18.9010000000       -5.6252888171       -8.1323784000
 N       18.9010000000       -5.6252888171      -10.0350042000
Al       18.9009984440       -9.2187159942       -0.6593784000
Al       17.3450000000       -8.3203598737       -3.1503784000
 N       18.9009984440       -9.2187159942       -2.5620042000
 N       17.3450000000       -8.3203598737       -5.0530042000
Al       18.9010000000       -5.6252888171       -3.1503784000
 N       18.9010000000       -5.6252888171       -5.0530042000
Al       18.9009984440       -9.2187159942        4.3226216000
Al       17.3450000000       -8.3203598737        1.8316216000
 N       18.9009984440       -9.2187159942        2.4199958000
 N       17.3450000000       -8.3203598737       -0.0710042000
Al       18.9010000000       -5.6252888171        1.8316216000
 N       18.9010000000       -5.6252888171       -0.0710042000
Al       18.9009984440       -9.2187159942        9.3046216000
Al       17.3450000000       -8.3203598737        6.8136216000
 N       18.9009984440       -9.2187159942        7.4019958000
 N       17.3450000000       -8.3203598737        4.9109958000
Al       18.9010000000       -5.6252888171        6.8136216000
 N       18.9010000000       -5.6252888171        4.9109958000
Al       18.9009984440       -9.2187159942       14.2866216000
Al       17.3450000000       -8.3203598737       11.7956216000
 N       18.9009984440       -9.2187159942       12.3839958000
 N       17.3450000000       -8.3203598737        9.8929958000
Al       18.9010000000       -5.6252888171       11.7956216000
 N       18.9010000000       -5.6252888171        9.8929958000
Al       18.9009984440       -9.2187159942       19.2686216000
Al       17.3450000000       -8.3203598737       16.7776216000
 N       18.9009984440       -9.2187159942       17.3659958000
 N       17.3450000000       -8.3203598737       14.8749958000
Al       18.9010000000       -5.6252888171       16.7776216000
 N       18.9010000000       -5.6252888171       14.8749958000
 N       17.3450000000       -8.3203598737       19.8569958000
 N       18.9010000000       -5.6252888171       19.8569958000
Al       18.9009984440       -3.8285738810      -15.6053784000
Al       17.3450000000       -2.9302177605      -18.0963784000
 N       18.9009984440       -3.8285738810      -17.5080042000
 N       17.3450000000       -2.9302177605      -19.9990042000
Al       18.9010000000       -0.2351467040      -18.0963784000
 N       18.9010000000       -0.2351467040      -19.9990042000
Al       18.9009984440       -3.8285738810      -10.6233784000
Al       17.3450000000       -2.9302177605      -13.1143784000
 N       18.9009984440       -3.8285738810      -12.5260042000
 N       17.3450000000       -2.9302177605      -15.0170042000
Al       18.9010000000       -0.2351467040      -13.1143784000
 N       18.9010000000       -0.2351467040      -15.0170042000
Al       18.9009984440       -3.8285738810       -5.6413784000
Al       17.3450000000       -2.9302177605       -8.1323784000
 N       18.9009984440       -3.8285738810       -7.5440042000
 N       17.3450000000       -2.9302177605      -10.0350042000
Al       18.9010000000       -0.2351467040       -8.1323784000
 N       18.9010000000       -0.2351467040      -10.0350042000
Al       18.9009984440       -3.8285738810       -0.6593784000
Al       17.3450000000       -2.9302177605       -3.1503784000
 N       18.9009984440       -3.8285738810       -2.5620042000
 N       17.3450000000       -2.9302177605       -5.0530042000
Al       18.9010000000       -0.2351467040       -3.1503784000
 N       18.9010000000       -0.2351467040       -5.0530042000
Al       18.9009984440       -3.8285738810        4.3226216000
Al       17.3450000000       -2.9302177605        1.8316216000
 N       18.9009984440       -3.8285738810        2.4199958000
 N       17.3450000000       -2.9302177605       -0.0710042000
Al       18.9010000000       -0.2351467040        1.8316216000
 N       18.9010000000       -0.2351467040       -0.0710042000
Al       18.9009984440       -3.8285738810        9.3046216000
Al       17.3450000000       -2.9302177605        6.8136216000
 N       18.9009984440       -3.8285738810        7.4019958000
 N       17.3450000000       -2.9302177605        4.9109958000
Al       18.9010000000       -0.2351467040        6.8136216000
 N       18.9010000000       -0.2351467040        4.9109958000
Al       18.9009984440       -3.8285738810       14.2866216000
Al       17.3450000000       -2.9302177605       11.7956216000
 N       18.9009984440       -3.8285738810       12.3839958000
 N       17.3450000000       -2.9302177605        9.8929958000
Al       18.9010000000       -0.2351467040       11.7956216000
 N       18.9010000000       -0.2351467040        9.8929958000
Al       18.9009984440       -3.8285738810       19.2686216000
Al       17.3450000000       -2.9302177605       16.7776216000
 N       18.9009984440       -3.8285738810       17.3659958000
 N       17.3450000000       -2.9302177605       14.8749958000
Al       18.9010000000       -0.2351467040       16.7776216000
 N       18.9010000000       -0.2351467040       14.8749958000
 N       17.3450000000       -2.9302177605       19.8569958000
 N       18.9010000000       -0.2351467040       19.8569958000
Al       18.9009984440        1.5615682321      -15.6053784000
Al       17.3450000000        2.4599243526      -18.0963784000
 N       18.9009984440        1.5615682321      -17.5080042000
 N       17.3450000000        2.4599243526      -19.9990042000
Al       18.9010000000        5.1549954092      -18.0963784000
 N       18.9010000000        5.1549954092      -19.9990042000
Al       18.9009984440        1.5615682321      -10.6233784000
Al       17.3450000000        2.4599243526      -13.1143784000
 N       18.9009984440        1.5615682321      -12.5260042000
 N       17.3450000000        2.4599243526      -15.0170042000
Al       18.9010000000        5.1549954092      -13.1143784000
 N       18.9010000000        5.1549954092      -15.0170042000
Al       18.9009984440        1.5615682321       -5.6413784000
Al       17.3450000000        2.4599243526       -8.1323784000
 N       18.9009984440        1.5615682321       -7.5440042000
 N       17.3450000000        2.4599243526      -10.0350042000
Al       18.9010000000        5.1549954092       -8.1323784000
 N       18.9010000000        5.1549954092      -10.0350042000
Al       18.9009984440        1.5615682321       -0.6593784000
Al       17.3450000000        2.4599243526       -3.1503784000
 N       18.9009984440        1.5615682321       -2.5620042000
 N       17.3450000000        2.4599243526       -5.0530042000
Al       18.9010000000        5.1549954092       -3.1503784000
 N       18.9010000000        5.1549954092       -5.0530042000
Al       18.9009984440        1.5615682321        4.3226216000
Al       17.3450000000        2.4599243526        1.8316216000
 N       18.9009984440        1.5615682321        2.4199958000
 N       17.3450000000        2.4599243526       -0.0710042000
Al       18.9010000000        5.1549954092        1.8316216000
 N       18.9010000000        5.1549954092       -0.0710042000
Al       18.9009984440        1.5615682321        9.3046216000
Al       17.3450000000        2.4599243526        6.8136216000
 N       18.9009984440        1.5615682321        7.4019958000
 N       17.3450000000        2.4599243526        4.9109958000
Al       18.9010000000        5.1549954092        6.8136216000
 N       18.9010000000        5.1549954092        4.9109958000
Al       18.9009984440        1.5615682321       14.2866216000
Al       17.3450000000        2.4599243526       11.7956216000
 N       18.9009984440        1.5615682321       12.3839958000
 N       17.3450000000        2.4599243526        9.8929958000
Al       18.9010000000        5.1549954092       11.7956216000
 N       18.9010000000        5.1549954092        9.8929958000
Al       18.9009984440        1.5615682321       19.2686216000
Al       17.3450000000        2.4599243526       16.7776216000
 N       18.9009984440        1.5615682321       17.3659958000
 N       17.3450000000        2.4599243526       14.8749958000
Al       18.9010000000        5.1549954092       16.7776216000
 N       18.9010000000        5.1549954092       14.8749958000
 N       17.3450000000        2.4599243526       19.8569958000
 N       18.9010000000        5.1549954092       19.8569958000
Al       18.9009984440        6.9517103453      -15.6053784000
Al       17.3450000000        7.8500664658      -18.0963784000
 N       18.9009984440        6.9517103453      -17.5080042000
 N       17.3450000000        7.8500664658      -19.9990042000
Al       18.9010000000       10.5451375223      -18.0963784000
 N       18.9010000000       10.5451375223      -19.9990042000
Al       18.9009984440        6.9517103453      -10.6233784000
Al       17.3450000000        7.8500664658      -13.1143784000
 N       18.9009984440        6.9517103453      -12.5260042000
 N       17.3450000000        7.8500664658      -15.0170042000
Al       18.9010000000       10.5451375223      -13.1143784000
 N       18.9010000000       10.5451375223      -15.0170042000
Al       18.9009984440        6.9517103453       -5.6413784000
Al       17.3450000000        7.8500664658       -8.1323784000
 N       18.9009984440        6.9517103453       -7.5440042000
 N       17.3450000000        7.8500664658      -10.0350042000
Al       18.9010000000       10.5451375223       -8.1323784000
 N       18.9010000000       10.5451375223      -10.0350042000
Al       18.9009984440        6.9517103453       -0.6593784000
Al       17.3450000000        7.8500664658       -3.1503784000
 N       18.9009984440        6.9517103453       -2.5620042000
 N       17.3450000000        7.8500664658       -5.0530042000
Al       18.9010000000       10.5451375223       -3.1503784000
 N       18.9010000000       10.5451375223       -5.0530042000
Al       18.9009984440        6.9517103453        4.3226216000
Al       17.3450000000        7.8500664658        1.8316216000
 N       18.9009984440        6.9517103453        2.4199958000
 N       17.3450000000        7.8500664658       -0.0710042000
Al       18.9010000000       10.5451375223        1.8316216000
 N       18.9010000000       10.5451375223       -0.0710042000
Al       18.9009984440        6.9517103453        9.3046216000
Al       17.3450000000        7.8500664658        6.8136216000
 N       18.9009984440        6.9517103453        7.4019958000
 N       17.3450000000        7.8500664658        4.9109958000
Al       18.9010000000       10.5451375223        6.8136216000
 N       18.9010000000       10.5451375223        4.9109958000
Al       18.9009984440        6.9517103453       14.2866216000
Al       17.3450000000        7.8500664658       11.7956216000
 N       18.9009984440        6.9517103453       12.3839958000
 N       17.3450000000        7.8500664658        9.8929958000
Al       18.9010000000       10.5451375223       11.7956216000
 N       18.9010000000       10.5451375223        9.8929958000
Al       18.9009984440        6.9517103453       19.2686216000
Al       17.3450000000        7.8500664658       16.7776216000
 N       18.9009984440        6.9517103453       17.3659958000
 N       17.3450000000        7.8500664658       14.8749958000
Al       18.9010000000       10.5451375223       16.7776216000
 N       18.9010000000       10.5451375223       14.8749958000
 N       17.3450000000        7.8500664658       19.8569958000
 N       18.9010000000       10.5451375223       19.8569958000
Al       18.9009984440       12.3418524584      -15.6053784000
Al       17.3450000000       13.2402085789      -18.0963784000
 N       18.9009984440       12.3418524584      -17.5080042000
 N       17.3450000000       13.2402085789      -19.9990042000
Al       18.9010000000       15.9352796355      -18.0963784000
 N       18.9010000000       15.9352796355      -19.9990042000
Al       18.9009984440       12.3418524584      -10.6233784000
Al       17.3450000000       13.2402085789      -13.1143784000
 N       18.9009984440       12.3418524584      -12.5260042000
 N       17.3450000000       13.2402085789      -15.0170042000
Al       18.9010000000       15.9352796355      -13.1143784000
 N       18.9010000000       15.9352796355      -15.0170042000
Al       18.9009984440       12.3418524584       -5.6413784000
Al       17.3450000000       13.2402085789       -8.1323784000
 N       18.9009984440       12.3418524584       -7.5440042000
 N       17.3450000000       13.2402085789      -10.0350042000
Al       18.9010000000       15.9352796355       -8.1323784000
 N       18.9010000000       15.9352796355      -10.0350042000
Al       18.9009984440       12.3418524584       -0.6593784000
Al       17.3450000000       13.2402085789       -3.1503784000
 N       18.9009984440       12.3418524584       -2.5620042000
 N       17.3450000000       13.2402085789       -5.0530042000
Al       18.9010000000       15.9352796355       -3.1503784000
 N       18.9010000000       15.9352796355       -5.0530042000
Al       18.9009984440       12.3418524584        4.3226216000
Al       17.3450000000       13.2402085789        1.8316216000
 N       18.9009984440       12.3418524584        2.4199958000
 N       17.3450000000       13.2402085789       -0.0710042000
Al       18.9010000000       15.9352796355        1.8316216000
 N       18.9010000000       15.9352796355       -0.0710042000
Al       18.9009984440       12.3418524584        9.3046216000
Al       17.3450000000       13.2402085789        6.8136216000
 N       18.9009984440       12.3418524584        7.4019958000
 N       17.3450000000       13.2402085789        4.9109958000
Al       18.9010000000       15.9352796355        6.8136216000
 N       18.9010000000       15.9352796355        4.9109958000
Al       18.9009984440       12.3418524584       14.2866216000
Al       17.3450000000       13.2402085789       11.7956216000
 N       18.9009984440       12.3418524584       12.3839958000
 N       17.3450000000       13.2402085789        9.8929958000
Al       18.9010000000       15.9352796355       11.7956216000
 N       18.9010000000       15.9352796355        9.8929958000
Al       18.9009984440       12.3418524584       19.2686216000
Al       17.3450000000       13.2402085789       16.7776216000
 N       18.9009984440       12.3418524584       17.3659958000
 N       17.3450000000       13.2402085789       14.8749958000
Al       18.9010000000       15.9352796355       16.7776216000
 N       18.9010000000       15.9352796355       14.8749958000
 N       17.3450000000       13.2402085789       19.8569958000
 N       18.9010000000       15.9352796355       19.8569958000
Al       18.9009984440       17.7319945716      -15.6053784000
Al       17.3450000000       18.6303506921      -18.0963784000
 N       18.9009984440       17.7319945716      -17.5080042000
 N       17.3450000000       18.6303506921      -19.9990042000
Al       18.9009984440       17.7319945716      -10.6233784000
Al       17.3450000000       18.6303506921      -13.1143784000
 N       18.9009984440       17.7319945716      -12.5260042000
 N       17.3450000000       18.6303506921      -15.0170042000
Al       18.9009984440       17.7319945716       -5.6413784000
Al       17.3450000000       18.6303506921       -8.1323784000
 N       18.9009984440       17.7319945716       -7.5440042000
 N       17.3450000000       18.6303506921      -10.0350042000
Al       18.9009984440       17.7319945716       -0.6593784000
Al       17.3450000000       18.6303506921       -3.1503784000
 N       18.9009984440       17.7319945716       -2.5620042000
 N       17.3450000000       18.6303506921       -5.0530042000
Al       18.9009984440       17.7319945716        4.3226216000
Al       17.3450000000       18.6303506921        1.8316216000
 N       18.9009984440       17.7319945716        2.4199958000
 N       17.3450000000       18.6303506921       -0.0710042000
Al       18.9009984440       17.7319945716        9.3046216000
Al       17.3450000000       18.6303506921        6.8136216000
 N       18.9009984440       17.7319945716        7.4019958000
 N       17.3450000000       18.6303506921        4.9109958000
Al       18.9009984440       17.7319945716       14.2866216000
Al       17.3450000000       18.6303506921       11.7956216000
 N       18.9009984440       17.7319945716       12.3839958000
 N       17.3450000000       18.6303506921        9.8929958000
Al       18.9009984440       17.7319945716       19.2686216000
Al       17.3450000000       18.6303506921       16.7776216000
 N       18.9009984440       17.7319945716       17.3659958000
 N       17.3450000000       18.6303506921       14.8749958000
 N       17.3450000000       18.6303506921       19.8569958000
 H      -20.9866248278      -16.7337246021      -15.2319255507
 H      -20.9866248278      -16.7337246021      -17.8814570493
 H      -20.9866248278      -16.7337246021      -10.2499255507
 H      -20.9866248278      -16.7337246021      -12.8994570493
 H      -20.9866248278      -16.7337246021       -5.2679255507
 H      -20.9866248278      -16.7337246021       -7.9174570493
 H      -20.9866248278      -16.7337246021       -0.2859255507
 H      -20.9866248278      -16.7337246021       -2.9354570493
 H      -20.9866248278      -16.7337246021        4.6960744493
 H      -20.9866248278      -16.7337246021        2.0465429507
 H      -20.9866248278      -16.7337246021        9.6780744493
 H      -20.9866248278      -16.7337246021        7.0285429507
 H      -20.9866248278      -16.7337246021       14.6600744493
 H      -20.9866248278      -16.7337246021       12.0105429507
 H      -20.9866248278      -16.7337246021       19.6420744493
 H      -20.9866248278      -16.7337246021       16.9925429507
 H      -20.9866248278      -11.3435824889      -15.2319255507
 H      -20.9866248278      -11.3435824889      -17.8814570493
 H      -20.9866248278      -11.3435824889      -10.2499255507
 H      -20.9866248278      -11.3435824889      -12.8994570493
 H      -20.9866248278      -11.3435824889       -5.2679255507
 H      -20.9866248278      -11.3435824889       -7.9174570493
 H      -20.9866248278      -11.3435824889       -0.2859255507
 H      -20.9866248278      -11.3435824889       -2.9354570493
 H      -20.9866248278      -11.3435824889        4.6960744493
 H      -20.9866248278      -11.3435824889        2.0465429507
 H      -20.9866248278      -11.3435824889        9.6780744493
 H      -20.9866248278      -11.3435824889        7.0285429507
 H      -20.9866248278      -11.3435824889       14.6600744493
 H      -20.9866248278      -11.3435824889       12.0105429507
 H      -20.9866248278      -11.3435824889       19.6420744493
 H      -20.9866248278      -11.3435824889       16.9925429507
 H      -20.9866248278       -5.9534403758      -15.2319255507
 H      -20.9866248278       -5.9534403758      -17.8814570493
 H      -20.9866248278       -5.9534403758      -10.2499255507
 H      -20.9866248278       -5.9534403758      -12.8994570493
 H      -20.9866248278       -5.9534403758       -5.2679255507
 H      -20.9866248278       -5.9534403758       -7.9174570493
 H      -20.9866248278       -5.9534403758       -0.2859255507
 H      -20.9866248278       -5.9534403758       -2.9354570493
 H      -20.9866248278       -5.9534403758        4.6960744493
 H      -20.9866248278       -5.9534403758        2.0465429507
 H      -20.9866248278       -5.9534403758        9.6780744493
 H      -20.9866248278       -5.9534403758        7.0285429507
 H      -20.9866248278       -5.9534403758       14.6600744493
 H      -20.9866248278       -5.9534403758       12.0105429507
 H      -20.9866248278       -5.9534403758       19.6420744493
 H      -20.9866248278       -5.9534403758       16.9925429507
 H      -20.9866248278       -0.5632982626      -15.2319255507
 H      -20.9866248278       -0.5632982626      -17.8814570493
 H      -20.9866248278       -0.5632982626      -10.2499255507
 H      -20.9866248278       -0.5632982626      -12.8994570493
 H      -20.9866248278       -0.5632982626       -5.2679255507
 H      -20.9866248278       -0.5632982626       -7.9174570493
 H      -20.9866248278       -0.5632982626       -0.2859255507
 H      -20.9866248278       -0.5632982626       -2.9354570493
 H      -20.9866248278       -0.5632982626        4.6960744493
 H      -20.9866248278       -0.5632982626        2.0465429507
 H      -20.9866248278       -0.5632982626        9.6780744493
 H      -20.9866248278       -0.5632982626        7.0285429507
 H      -20.9866248278       -0.5632982626       14.6600744493
 H      -20.9866248278       -0.5632982626       12.0105429507
 H      -20.9866248278       -0.5632982626       19.6420744493
 H      -20.9866248278       -0.5632982626       16.9925429507
 H      -20.9866248278        4.8268438505      -15.2319255507
 H      -20.9866248278        4.8268438505      -17.8814570493
 H      -20.9866248278        4.8268438505      -10.2499255507
 H      -20.9866248278        4.8268438505      -12.8994570493
 H      -20.9866248278        4.8268438505       -5.2679255507
 H      -20.9866248278        4.8268438505       -7.9174570493
 H      -20.9866248278        4.8268438505       -0.2859255507
 H      -20.9866248278        4.8268438505       -2.9354570493
 H      -20.9866248278        4.8268438505        4.6960744493
 H      -20.9866248278        4.8268438505        2.0465429507
 H      -20.9866248278        4.8268438505        9.6780744493
 H      -20.9866248278        4.8268438505        7.0285429507
 H      -20.9866248278        4.8268438505       14.6600744493
 H      -20.9866248278        4.8268438505       12.0105429507
 H      -20.9866248278        4.8268438505       19.6420744493
 H      -20.9866248278        4.8268438505       16.9925429507
 H      -20.9866248278       10.2169859637      -15.2319255507
 H      -20.9866248278       10.2169859637      -17.8814570493
 H      -20.9866248278       10.2169859637      -10.2499255507
 H      -20.9866248278       10.2169859637      -12.8994570493
 H      -20.9866248278       10.2169859637       -5.2679255507
 H      -20.9866248278       10.2169859637       -7.9174570493
 H      -20.9866248278       10.2169859637       -0.2859255507
 H      -20.9866248278       10.2169859637       -2.9354570493
 H      -20.9866248278       10.2169859637        4.6960744493
 H      -20.9866248278       10.2169859637        2.0465429507
 H      -20.9866248278       10.2169859637        9.6780744493
 H      -20.9866248278       10.2169859637        7.0285429507
 H      -20.9866248278       10.2169859637       14.6600744493
 H      -20.9866248278       10.2169859637       12.0105429507
 H      -20.9866248278       10.2169859637       19.6420744493
 H      -20.9866248278       10.2169859637       16.9925429507
 H      -20.9866248278       15.6071280768      -15.2319255507
 H      -20.9866248278       15.6071280768      -17.8814570493
 H      -20.9866248278       15.6071280768      -10.2499255507
 H      -20.9866248278       15.6071280768      -12.8994570493
 H      -20.9866248278       15.6071280768       -5.2679255507
 H      -20.9866248278       15.6071280768       -7.9174570493
 H      -20.9866248278       15.6071280768       -0.2859255507
 H      -20.9866248278       15.6071280768       -2.9354570493
 H      -20.9866248278       15.6071280768        4.6960744493
 H      -20.9866248278       15.6071280768        2.0465429507
 H      -20.9866248278       15.6071280768        9.6780744493
 H      -20.9866248278       15.6071280768        7.0285429507
 H      -20.9866248278       15.6071280768       14.6600744493
 H      -20.9866248278       15.6071280768       12.0105429507
 H      -20.9866248278       15.6071280768       19.6420744493
 H      -20.9866248278       15.6071280768       16.9925429507
 H      -18.4430005684      -21.1394095098      -15.2319260566
 H      -20.9866239091      -19.6708478894      -17.7229260566
 H      -18.4430005684      -21.1394095098      -17.8814565434
 H      -20.9866239091      -19.6708478894      -20.3724565434
 H      -19.0113767282      -19.6708486618      -20.3724570493
 H      -19.9990009876      -17.9602348107      -20.3724565434
 H      -19.4306239091      -16.9757768328      -20.3724565434
 H      -17.4553767282      -16.9757776053      -20.3724570493
 H      -18.4430009876      -15.2651637541      -20.3724565434
 H      -18.4430005684      -21.1394095098      -10.2499260566
 H      -20.9866239091      -19.6708478894      -12.7409260566
 H      -18.4430005684      -21.1394095098      -12.8994565434
 H      -20.9866239091      -19.6708478894      -15.3904565434
 H      -18.4430005684      -21.1394095098       -5.2679260566
 H      -20.9866239091      -19.6708478894       -7.7589260566
 H      -18.4430005684      -21.1394095098       -7.9174565434
 H      -20.9866239091      -19.6708478894      -10.4084565434
 H      -18.4430005684      -21.1394095098       -0.2859260566
 H      -20.9866239091      -19.6708478894       -2.7769260566
 H      -18.4430005684      -21.1394095098       -2.9354565434
 H      -20.9866239091      -19.6708478894       -5.4264565434
 H      -18.4430005684      -21.1394095098        4.6960739434
 H      -20.9866239091      -19.6708478894        2.2050739434
 H      -18.4430005684      -21.1394095098        2.0465434566
 H      -20.9866239091      -19.6708478894       -0.4444565434
 H      -18.4430005684      -21.1394095098        9.6780739434
 H      -20.9866239091      -19.6708478894        7.1870739434
 H      -18.4430005684      -21.1394095098        7.0285434566
 H      -20.9866239091      -19.6708478894        4.5375434566
 H      -18.4430005684      -21.1394095098       14.6600739434
 H      -20.9866239091      -19.6708478894       12.1690739434
 H      -18.4430005684      -21.1394095098       12.0105434566
 H      -20.9866239091      -19.6708478894        9.5195434566
 H      -18.4430005684      -21.1394095098       19.6420739434
 H      -20.9866239091      -19.6708478894       17.1510739434
 H      -18.4430005684      -21.1394095098       16.9925434566
 H      -20.9866239091      -19.6708478894       14.5015434566
 H      -20.9866239091      -19.6708478894       19.4835434566
 H      -19.9990000000      -19.1006441000       21.0569958000
 H      -18.4430000000      -16.4055730434       21.0569958000
 H      -20.9866239091      -14.2807057762      -17.7229260566
 H      -20.9866239091      -14.2807057762      -20.3724565434
 H      -19.0113767282      -14.2807065487      -20.3724570493
 H      -19.9990009876      -12.5700926975      -20.3724565434
 H      -19.4306239091      -11.5856347196      -20.3724565434
 H      -17.4553767282      -11.5856354921      -20.3724570493
 H      -18.4430009876       -9.8750216409      -20.3724565434
 H      -20.9866239091      -14.2807057762      -12.7409260566
 H      -20.9866239091      -14.2807057762      -15.3904565434
 H      -20.9866239091      -14.2807057762       -7.7589260566
 H      -20.9866239091      -14.2807057762      -10.4084565434
 H      -20.9866239091      -14.2807057762       -2.7769260566
 H      -20.9866239091      -14.2807057762       -5.4264565434
 H      -20.9866239091      -14.2807057762        2.2050739434
 H      -20.9866239091      -14.2807057762       -0.4444565434
 H      -20.9866239091      -14.2807057762        7.1870739434
 H      -20.9866239091      -14.2807057762        4.5375434566
 H      -20.9866239091      -14.2807057762       12.1690739434
 H      -20.9866239091      -14.2807057762        9.5195434566
 H      -20.9866239091      -14.2807057762       17.1510739434
 H      -20.9866239091      -14.2807057762       14.5015434566
 H      -20.9866239091      -14.2807057762       19.4835434566
 H      -19.9990000000      -13.7105019868       21.0569958000
 H      -18.4430000000      -11.0154309303       21.0569958000
 H      -20.9866239091       -8.8905636631      -17.7229260566
 H      -20.9866239091       -8.8905636631      -20.3724565434
 H      -19.0113767282       -8.8905644355      -20.3724570493
 H      -19.9990009876       -7.1799505844      -20.3724565434
 H      -19.4306239091       -6.1954926065      -20.3724565434
 H      -17.4553767282       -6.1954933789      -20.3724570493
 H      -18.4430009876       -4.4848795278      -20.3724565434
 H      -20.9866239091       -8.8905636631      -12.7409260566
 H      -20.9866239091       -8.8905636631      -15.3904565434
 H      -20.9866239091       -8.8905636631       -7.7589260566
 H      -20.9866239091       -8.8905636631      -10.4084565434
 H      -20.9866239091       -8.8905636631       -2.7769260566
 H      -20.9866239091       -8.8905636631       -5.4264565434
 H      -20.9866239091       -8.8905636631        2.2050739434
 H      -20.9866239091       -8.8905636631       -0.4444565434
 H      -20.9866239091       -8.8905636631        7.1870739434
 H      -20.9866239091       -8.8905636631        4.5375434566
 H      -20.9866239091       -8.8905636631       12.1690739434
 H      -20.9866239091       -8.8905636631        9.5195434566
 H      -20.9866239091       -8.8905636631       17.1510739434
 H      -20.9866239091       -8.8905636631       14.5015434566
 H      -20.9866239091       -8.8905636631       19.4835434566
 H      -19.9990000000       -8.3203598737       21.0569958000
 H      -18.4430000000       -5.6252888171       21.0569958000
 H      -20.9866239091       -3.5004215499      -17.7229260566
 H      -20.9866239091       -3.5004215499      -20.3724565434
 H      -19.0113767282       -3.5004223224      -20.3724570493
 H      -19.9990009876       -1.7898084712      -20.3724565434
 H      -19.4306239091       -0.8053504933      -20.3724565434
 H      -17.4553767282       -0.8053512658      -20.3724570493
 H      -18.4430009876        0.9052625854      -20.3724565434
 H      -20.9866239091       -3.5004215499      -12.7409260566
 H      -20.9866239091       -3.5004215499      -15.3904565434
 H      -20.9866239091       -3.5004215499       -7.7589260566
 H      -20.9866239091       -3.5004215499      -10.4084565434
 H      -20.9866239091       -3.5004215499       -2.7769260566
 H      -20.9866239091       -3.5004215499       -5.4264565434
 H      -20.9866239091       -3.5004215499        2.2050739434
 H      -20.9866239091       -3.5004215499       -0.4444565434
 H      -20.9866239091       -3.5004215499        7.1870739434
 H      -20.9866239091       -3.5004215499        4.5375434566
 H      -20.9866239091       -3.5004215499       12.1690739434
 H      -20.9866239091       -3.5004215499        9.5195434566
 H      -20.9866239091       -3.5004215499       17.1510739434
 H      -20.9866239091       -3.5004215499       14.5015434566
 H      -20.9866239091       -3.5004215499       19.4835434566
 H      -19.9990000000       -2.9302177605       21.0569958000
 H      -18.4430000000       -0.2351467040       21.0569958000
 H      -20.9866239091        1.8897205633      -17.7229260566
 H      -20.9866239091        1.8897205633      -20.3724565434
 H      -19.0113767282        1.8897197908      -20.3724570493
 H      -19.9990009876        3.6003336420      -20.3724565434
 H      -19.4306239091        4.5847916198      -20.3724565434
 H      -17.4553767282        4.5847908474      -20.3724570493
 H      -18.4430009876        6.2954046985      -20.3724565434
 H      -20.9866239091        1.8897205633      -12.7409260566
 H      -20.9866239091        1.8897205633      -15.3904565434
 H      -20.9866239091        1.8897205633       -7.7589260566
 H      -20.9866239091        1.8897205633      -10.4084565434
 H      -20.9866239091        1.8897205633       -2.7769260566
 H      -20.9866239091        1.8897205633       -5.4264565434
 H      -20.9866239091        1.8897205633        2.2050739434
 H      -20.9866239091        1.8897205633       -0.4444565434
 H      -20.9866239091        1.8897205633        7.1870739434
 H      -20.9866239091        1.8897205633        4.5375434566
 H      -20.9866239091        1.8897205633       12.1690739434
 H      -20.9866239091        1.8897205633        9.5195434566
 H      -20.9866239091        1.8897205633       17.1510739434
 H      -20.9866239091        1.8897205633       14.5015434566
 H      -20.9866239091        1.8897205633       19.4835434566
 H      -19.9990000000        2.4599243526       21.0569958000
 H      -18.4430000000        5.1549954092       21.0569958000
 H      -20.9866239091        7.2798626764      -17.7229260566
 H      -20.9866239091        7.2798626764      -20.3724565434
 H      -19.0113767282        7.2798619039      -20.3724570493
 H      -19.9990009876        8.9904757551      -20.3724565434
 H      -19.4306239091        9.9749337330      -20.3724565434
 H      -17.4553767282        9.9749329605      -20.3724570493
 H      -18.4430009876       11.6855468117      -20.3724565434
 H      -20.9866239091        7.2798626764      -12.7409260566
 H      -20.9866239091        7.2798626764      -15.3904565434
 H      -20.9866239091        7.2798626764       -7.7589260566
 H      -20.9866239091        7.2798626764      -10.4084565434
 H      -20.9866239091        7.2798626764       -2.7769260566
 H      -20.9866239091        7.2798626764       -5.4264565434
 H      -20.9866239091        7.2798626764        2.2050739434
 H      -20.9866239091        7.2798626764       -0.4444565434
 H      -20.9866239091        7.2798626764        7.1870739434
 H      -20.9866239091        7.2798626764        4.5375434566
 H      -20.9866239091        7.2798626764       12.1690739434
 H      -20.9866239091        7.2798626764        9.5195434566
 H      -20.9866239091        7.2798626764       17.1510739434
 H      -20.9866239091        7.2798626764       14.5015434566
 H      -20.9866239091        7.2798626764       19.4835434566
 H      -19.9990000000        7.8500664658       21.0569958000
 H      -18.4430000000       10.5451375223       21.0569958000
 H      -20.9866239091       12.6700047896      -17.7229260566
 H      -20.9866239091       12.6700047896      -20.3724565434
 H      -19.9990009876       14.3806178683      -20.3724565434
 H      -19.0113767282       12.6700040171      -20.3724570493
 H      -19.4306239091       15.3650758461      -20.3724565434
 H      -17.4553767282       15.3650750737      -20.3724570493
 H      -18.4430009876       17.0756889248      -20.3724565434
 H      -20.9866239091       12.6700047896      -12.7409260566
 H      -20.9866239091       12.6700047896      -15.3904565434
 H      -20.9866239091       12.6700047896       -7.7589260566
 H      -20.9866239091       12.6700047896      -10.4084565434
 H      -20.9866239091       12.6700047896       -2.7769260566
 H      -20.9866239091       12.6700047896       -5.4264565434
 H      -20.9866239091       12.6700047896        2.2050739434
 H      -20.9866239091       12.6700047896       -0.4444565434
 H      -20.9866239091       12.6700047896        7.1870739434
 H      -20.9866239091       12.6700047896        4.5375434566
 H      -20.9866239091       12.6700047896       12.1690739434
 H      -20.9866239091       12.6700047896        9.5195434566
 H      -20.9866239091       12.6700047896       17.1510739434
 H      -20.9866239091       12.6700047896       14.5015434566
 H      -20.9866239091       12.6700047896       19.4835434566
 H      -19.9990000000       13.2402085789       21.0569958000
 H      -18.4430000000       15.9352796355       21.0569958000
 H      -20.9866239091       18.0601469027      -17.7229260566
 H      -19.9990009876       19.7707599814      -17.7229260566
 H      -20.9866239091       18.0601469027      -20.3724565434
 H      -19.9990009876       19.7707599814      -20.3724565434
 H      -19.0113767282       18.0601461302      -20.3724570493
 H      -20.9866239091       18.0601469027      -12.7409260566
 H      -19.9990009876       19.7707599814      -12.7409260566
 H      -20.9866239091       18.0601469027      -15.3904565434
 H      -19.9990009876       19.7707599814      -15.3904565434
 H      -20.9866239091       18.0601469027       -7.7589260566
 H      -19.9990009876       19.7707599814       -7.7589260566
 H      -20.9866239091       18.0601469027      -10.4084565434
 H      -19.9990009876       19.7707599814      -10.4084565434
 H      -20.9866239091       18.0601469027       -2.7769260566
 H      -19.9990009876       19.7707599814       -2.7769260566
 H      -20.9866239091       18.0601469027       -5.4264565434
 H      -19.9990009876       19.7707599814       -5.4264565434
 H      -20.9866239091       18.0601469027        2.2050739434
 H      -19.9990009876       19.7707599814        2.2050739434
 H      -20.9866239091       18.0601469027       -0.4444565434
 H      -19.9990009876       19.7707599814       -0.4444565434
 H      -20.9866239091       18.0601469027        7.1870739434
 H      -19.9990009876       19.7707599814        7.1870739434
 H      -20.9866239091       18.0601469027        4.5375434566
 H      -19.9990009876       19.7707599814        4.5375434566
 H      -20.9866239091       18.0601469027       12.1690739434
 H      -19.9990009876       19.7707599814       12.1690739434
 H      -20.9866239091       18.0601469027        9.5195434566
 H      -19.9990009876       19.7707599814        9.5195434566
 H      -20.9866239091       18.0601469027       17.1510739434
 H      -19.9990009876       19.7707599814       17.1510739434
 H      -20.9866239091       18.0601469027       14.5015434566
 H      -19.9990009876       19.7707599814       14.5015434566
 H      -20.9866239091       18.0601469027       19.4835434566
 H      -19.9990009876       19.7707599814       19.4835434566
 H      -19.9990000000       18.6303506921       21.0569958000
 H      -15.3310005684      -21.1394095098      -15.2319260566
 H      -15.3310005684      -21.1394095098      -17.8814565434
 H      -17.8746239091      -19.6708478894      -20.3724565434
 H      -15.8993767282      -19.6708486618      -20.3724570493
 H      -16.8870009876      -17.9602348107      -20.3724565434
 H      -16.3186239091      -16.9757768328      -20.3724565434
 H      -15.3310009876      -15.2651637541      -20.3724565434
 H      -14.3433767282      -16.9757776053      -20.3724570493
 H      -15.3310005684      -21.1394095098      -10.2499260566
 H      -15.3310005684      -21.1394095098      -12.8994565434
 H      -15.3310005684      -21.1394095098       -5.2679260566
 H      -15.3310005684      -21.1394095098       -7.9174565434
 H      -15.3310005684      -21.1394095098       -0.2859260566
 H      -15.3310005684      -21.1394095098       -2.9354565434
 H      -15.3310005684      -21.1394095098        4.6960739434
 H      -15.3310005684      -21.1394095098        2.0465434566
 H      -15.3310005684      -21.1394095098        9.6780739434
 H      -15.3310005684      -21.1394095098        7.0285434566
 H      -15.3310005684      -21.1394095098       14.6600739434
 H      -15.3310005684      -21.1394095098       12.0105434566
 H      -15.3310005684      -21.1394095098       19.6420739434
 H      -15.3310005684      -21.1394095098       16.9925434566
 H      -16.8870000000      -19.1006441000       21.0569958000
 H      -15.3310000000      -16.4055730434       21.0569958000
 H      -17.8746239091      -14.2807057762      -20.3724565434
 H      -15.8993767282      -14.2807065487      -20.3724570493
 H      -16.8870009876      -12.5700926975      -20.3724565434
 H      -16.3186239091      -11.5856347196      -20.3724565434
 H      -15.3310009876       -9.8750216409      -20.3724565434
 H      -14.3433767282      -11.5856354921      -20.3724570493
 H      -16.8870000000      -13.7105019868       21.0569958000
 H      -15.3310000000      -11.0154309303       21.0569958000
 H      -17.8746239091       -8.8905636631      -20.3724565434
 H      -15.8993767282       -8.8905644355      -20.3724570493
 H      -16.8870009876       -7.1799505844      -20.3724565434
 H      -16.3186239091       -6.1954926065      -20.3724565434
 H      -15.3310009876       -4.4848795278      -20.3724565434
 H      -14.3433767282       -6.1954933789      -20.3724570493
 H      -16.8870000000       -8.3203598737       21.0569958000
 H      -15.3310000000       -5.6252888171       21.0569958000
 H      -17.8746239091       -3.5004215499      -20.3724565434
 H      -15.8993767282       -3.5004223224      -20.3724570493
 H      -16.8870009876       -1.7898084712      -20.3724565434
 H      -16.3186239091       -0.8053504933      -20.3724565434
 H      -15.3310009876        0.9052625854      -20.3724565434
 H      -14.3433767282       -0.8053512658      -20.3724570493
 H      -16.8870000000       -2.9302177605       21.0569958000
 H      -15.3310000000       -0.2351467040       21.0569958000
 H      -17.8746239091        1.8897205633      -20.3724565434
 H      -15.8993767282        1.8897197908      -20.3724570493
 H      -16.8870009876        3.6003336420      -20.3724565434
 H      -16.3186239091        4.5847916198      -20.3724565434
 H      -15.3310009876        6.2954046985      -20.3724565434
 H      -14.3433767282        4.5847908474      -20.3724570493
 H      -16.8870000000        2.4599243526       21.0569958000
 H      -15.3310000000        5.1549954092       21.0569958000
 H      -17.8746239091        7.2798626764      -20.3724565434
 H      -15.8993767282        7.2798619039      -20.3724570493
 H      -16.8870009876        8.9904757551      -20.3724565434
 H      -16.3186239091        9.9749337330      -20.3724565434
 H      -15.3310009876       11.6855468117      -20.3724565434
 H      -14.3433767282        9.9749329605      -20.3724570493
 H      -16.8870000000        7.8500664658       21.0569958000
 H      -15.3310000000       10.5451375223       21.0569958000
 H      -17.8746239091       12.6700047896      -20.3724565434
 H      -16.8870009876       14.3806178683      -20.3724565434
 H      -15.8993767282       12.6700040171      -20.3724570493
 H      -16.3186239091       15.3650758461      -20.3724565434
 H      -15.3310009876       17.0756889248      -20.3724565434
 H      -14.3433767282       15.3650750737      -20.3724570493
 H      -16.8870000000       13.2402085789       21.0569958000
 H      -15.3310000000       15.9352796355       21.0569958000
 H      -16.8870009876       19.7707599814      -17.7229260566
 H      -17.8746239091       18.0601469027      -20.3724565434
 H      -16.8870009876       19.7707599814      -20.3724565434
 H      -15.8993767282       18.0601461302      -20.3724570493
 H      -16.8870009876       19.7707599814      -12.7409260566
 H      -16.8870009876       19.7707599814      -15.3904565434
 H      -16.8870009876       19.7707599814       -7.7589260566
 H      -16.8870009876       19.7707599814      -10.4084565434
 H      -16.8870009876       19.7707599814       -2.7769260566
 H      -16.8870009876       19.7707599814       -5.4264565434
 H      -16.8870009876       19.7707599814        2.2050739434
 H      -16.8870009876       19.7707599814       -0.4444565434
 H      -16.8870009876       19.7707599814        7.1870739434
 H      -16.8870009876       19.7707599814        4.5375434566
 H      -16.8870009876       19.7707599814       12.1690739434
 H      -16.8870009876       19.7707599814        9.5195434566
 H      -16.8870009876       19.7707599814       17.1510739434
 H      -16.8870009876       19.7707599814       14.5015434566
 H      -16.8870009876       19.7707599814       19.4835434566
 H      -16.8870000000       18.6303506921       21.0569958000
 H      -12.2190005684      -21.1394095098      -15.2319260566
 H      -12.2190005684      -21.1394095098      -17.8814565434
 H      -14.7626239091      -19.6708478894      -20.3724565434
 H      -12.7873767282      -19.6708486618      -20.3724570493
 H      -13.7750009876      -17.9602348107      -20.3724565434
 H      -13.2066239091      -16.9757768328      -20.3724565434
 H      -11.2313767282      -16.9757776053      -20.3724570493
 H      -12.2190009876      -15.2651637541      -20.3724565434
 H      -12.2190005684      -21.1394095098      -10.2499260566
 H      -12.2190005684      -21.1394095098      -12.8994565434
 H      -12.2190005684      -21.1394095098       -5.2679260566
 H      -12.2190005684      -21.1394095098       -7.9174565434
 H      -12.2190005684      -21.1394095098       -0.2859260566
 H      -12.2190005684      -21.1394095098       -2.9354565434
 H      -12.2190005684      -21.1394095098        4.6960739434
 H      -12.2190005684      -21.1394095098        2.0465434566
 H      -12.2190005684      -21.1394095098        9.6780739434
 H      -12.2190005684      -21.1394095098        7.0285434566
 H      -12.2190005684      -21.1394095098       14.6600739434
 H      -12.2190005684      -21.1394095098       12.0105434566
 H      -12.2190005684      -21.1394095098       19.6420739434
 H      -12.2190005684      -21.1394095098       16.9925434566
 H      -13.7750000000      -19.1006441000       21.0569958000
 H      -12.2190000000      -16.4055730434       21.0569958000
 H      -14.7626239091      -14.2807057762      -20.3724565434
 H      -12.7873767282      -14.2807065487      -20.3724570493
 H      -13.7750009876      -12.5700926975      -20.3724565434
 H      -13.2066239091      -11.5856347196      -20.3724565434
 H      -11.2313767282      -11.5856354921      -20.3724570493
 H      -12.2190009876       -9.8750216409      -20.3724565434
 H      -13.7750000000      -13.7105019868       21.0569958000
 H      -12.2190000000      -11.0154309303       21.0569958000
 H      -14.7626239091       -8.8905636631      -20.3724565434
 H      -12.7873767282       -8.8905644355      -20.3724570493
 H      -13.7750009876       -7.1799505844      -20.3724565434
 H      -13.2066239091       -6.1954926065      -20.3724565434
 H      -11.2313767282       -6.1954933789      -20.3724570493
 H      -12.2190009876       -4.4848795278      -20.3724565434
 H      -13.7750000000       -8.3203598737       21.0569958000
 H      -12.2190000000       -5.6252888171       21.0569958000
 H      -14.7626239091       -3.5004215499      -20.3724565434
 H      -12.7873767282       -3.5004223224      -20.3724570493
 H      -13.7750009876       -1.7898084712      -20.3724565434
 H      -13.2066239091       -0.8053504933      -20.3724565434
 H      -11.2313767282       -0.8053512658      -20.3724570493
 H      -12.2190009876        0.9052625854      -20.3724565434
 H      -13.7750000000       -2.9302177605       21.0569958000
 H      -12.2190000000       -0.2351467040       21.0569958000
 H      -14.7626239091        1.8897205633      -20.3724565434
 H      -12.7873767282        1.8897197908      -20.3724570493
 H      -13.7750009876        3.6003336420      -20.3724565434
 H      -13.2066239091        4.5847916198      -20.3724565434
 H      -11.2313767282        4.5847908474      -20.3724570493
 H      -12.2190009876        6.2954046985      -20.3724565434
 H      -13.7750000000        2.4599243526       21.0569958000
 H      -12.2190000000        5.1549954092       21.0569958000
 H      -14.7626239091        7.2798626764      -20.3724565434
 H      -12.7873767282        7.2798619039      -20.3724570493
 H      -13.7750009876        8.9904757551      -20.3724565434
 H      -13.2066239091        9.9749337330      -20.3724565434
 H      -11.2313767282        9.9749329605      -20.3724570493
 H      -12.2190009876       11.6855468117      -20.3724565434
 H      -13.7750000000        7.8500664658       21.0569958000
 H      -12.2190000000       10.5451375223       21.0569958000
 H      -14.7626239091       12.6700047896      -20.3724565434
 H      -13.7750009876       14.3806178683      -20.3724565434
 H      -12.7873767282       12.6700040171      -20.3724570493
 H      -13.2066239091       15.3650758461      -20.3724565434
 H      -11.2313767282       15.3650750737      -20.3724570493
 H      -12.2190009876       17.0756889248      -20.3724565434
 H      -13.7750000000       13.2402085789       21.0569958000
 H      -12.2190000000       15.9352796355       21.0569958000
 H      -13.7750009876       19.7707599814      -17.7229260566
 H      -14.7626239091       18.0601469027      -20.3724565434
 H      -13.7750009876       19.7707599814      -20.3724565434
 H      -12.7873767282       18.0601461302      -20.3724570493
 H      -13.7750009876       19.7707599814      -12.7409260566
 H      -13.7750009876       19.7707599814      -15.3904565434
 H      -13.7750009876       19.7707599814       -7.7589260566
 H      -13.7750009876       19.7707599814      -10.4084565434
 H      -13.7750009876       19.7707599814       -2.7769260566
 H      -13.7750009876       19.7707599814       -5.4264565434
 H      -13.7750009876       19.7707599814        2.2050739434
 H      -13.7750009876       19.7707599814       -0.4444565434
 H      -13.7750009876       19.7707599814        7.1870739434
 H      -13.7750009876       19.7707599814        4.5375434566
 H      -13.7750009876       19.7707599814       12.1690739434
 H      -13.7750009876       19.7707599814        9.5195434566
 H      -13.7750009876       19.7707599814       17.1510739434
 H      -13.7750009876       19.7707599814       14.5015434566
 H      -13.7750009876       19.7707599814       19.4835434566
 H      -13.7750000000       18.6303506921       21.0569958000
 H       -9.1070005684      -21.1394095098      -15.2319260566
 H       -9.1070005684      -21.1394095098      -17.8814565434
 H      -11.6506239091      -19.6708478894      -20.3724565434
 H      -10.6630009876      -17.9602348107      -20.3724565434
 H       -9.6753767282      -19.6708486618      -20.3724570493
 H      -10.0946239091      -16.9757768328      -20.3724565434
 H       -8.1193767282      -16.9757776053      -20.3724570493
 H       -9.1070009876      -15.2651637541      -20.3724565434
 H       -9.1070005684      -21.1394095098      -10.2499260566
 H       -9.1070005684      -21.1394095098      -12.8994565434
 H       -9.1070005684      -21.1394095098       -5.2679260566
 H       -9.1070005684      -21.1394095098       -7.9174565434
 H       -9.1070005684      -21.1394095098       -0.2859260566
 H       -9.1070005684      -21.1394095098       -2.9354565434
 H       -9.1070005684      -21.1394095098        4.6960739434
 H       -9.1070005684      -21.1394095098        2.0465434566
 H       -9.1070005684      -21.1394095098        9.6780739434
 H       -9.1070005684      -21.1394095098        7.0285434566
 H       -9.1070005684      -21.1394095098       14.6600739434
 H       -9.1070005684      -21.1394095098       12.0105434566
 H       -9.1070005684      -21.1394095098       19.6420739434
 H       -9.1070005684      -21.1394095098       16.9925434566
 H      -10.6630000000      -19.1006441000       21.0569958000
 H       -9.1070000000      -16.4055730434       21.0569958000
 H      -11.6506239091      -14.2807057762      -20.3724565434
 H      -10.6630009876      -12.5700926975      -20.3724565434
 H       -9.6753767282      -14.2807065487      -20.3724570493
 H      -10.0946239091      -11.5856347196      -20.3724565434
 H       -8.1193767282      -11.5856354921      -20.3724570493
 H       -9.1070009876       -9.8750216409      -20.3724565434
 H      -10.6630000000      -13.7105019868       21.0569958000
 H       -9.1070000000      -11.0154309303       21.0569958000
 H      -11.6506239091       -8.8905636631      -20.3724565434
 H      -10.6630009876       -7.1799505844      -20.3724565434
 H       -9.6753767282       -8.8905644355      -20.3724570493
 H      -10.0946239091       -6.1954926065      -20.3724565434
 H       -8.1193767282       -6.1954933789      -20.3724570493
 H       -9.1070009876       -4.4848795278      -20.3724565434
 H      -10.6630000000       -8.3203598737       21.0569958000
 H       -9.1070000000       -5.6252888171       21.0569958000
 H      -11.6506239091       -3.5004215499      -20.3724565434
 H      -10.6630009876       -1.7898084712      -20.3724565434
 H       -9.6753767282       -3.5004223224      -20.3724570493
 H      -10.0946239091       -0.8053504933      -20.3724565434
 H       -8.1193767282       -0.8053512658      -20.3724570493
 H       -9.1070009876        0.9052625854      -20.3724565434
 H      -10.6630000000       -2.9302177605       21.0569958000
 H       -9.1070000000       -0.2351467040       21.0569958000
 H      -11.6506239091        1.8897205633      -20.3724565434
 H      -10.6630009876        3.6003336420      -20.3724565434
 H       -9.6753767282        1.8897197908      -20.3724570493
 H      -10.0946239091        4.5847916198      -20.3724565434
 H       -8.1193767282        4.5847908474      -20.3724570493
 H       -9.1070009876        6.2954046985      -20.3724565434
 H      -10.6630000000        2.4599243526       21.0569958000
 H       -9.1070000000        5.1549954092       21.0569958000
 H      -11.6506239091        7.2798626764      -20.3724565434
 H      -10.6630009876        8.9904757551      -20.3724565434
 H       -9.6753767282        7.2798619039      -20.3724570493
 H      -10.0946239091        9.9749337330      -20.3724565434
 H       -8.1193767282        9.9749329605      -20.3724570493
 H       -9.1070009876       11.6855468117      -20.3724565434
 H      -10.6630000000        7.8500664658       21.0569958000
 H       -9.1070000000       10.5451375223       21.0569958000
 H      -11.6506239091       12.6700047896      -20.3724565434
 H      -10.6630009876       14.3806178683      -20.3724565434
 H       -9.6753767282       12.6700040171      -20.3724570493
 H      -10.0946239091       15.3650758461      -20.3724565434
 H       -8.1193767282       15.3650750737      -20.3724570493
 H       -9.1070009876       17.0756889248      -20.3724565434
 H      -10.6630000000       13.2402085789       21.0569958000
 H       -9.1070000000       15.9352796355       21.0569958000
 H      -10.6630009876       19.7707599814      -17.7229260566
 H      -11.6506239091       18.0601469027      -20.3724565434
 H      -10.6630009876       19.7707599814      -20.3724565434
 H       -9.6753767282       18.0601461302      -20.3724570493
 H      -10.6630009876       19.7707599814      -12.7409260566
 H      -10.6630009876       19.7707599814      -15.3904565434
 H      -10.6630009876       19.7707599814       -7.7589260566
 H      -10.6630009876       19.7707599814      -10.4084565434
 H      -10.6630009876       19.7707599814       -2.7769260566
 H      -10.6630009876       19.7707599814       -5.4264565434
 H      -10.6630009876       19.7707599814        2.2050739434
 H      -10.6630009876       19.7707599814       -0.4444565434
 H      -10.6630009876       19.7707599814        7.1870739434
 H      -10.6630009876       19.7707599814        4.5375434566
 H      -10.6630009876       19.7707599814       12.1690739434
 H      -10.6630009876       19.7707599814        9.5195434566
 H      -10.6630009876       19.7707599814       17.1510739434
 H      -10.6630009876       19.7707599814       14.5015434566
 H      -10.6630009876       19.7707599814       19.4835434566
 H      -10.6630000000       18.6303506921       21.0569958000
 H       -5.9950005684      -21.1394095098      -15.2319260566
 H       -5.9950005684      -21.1394095098      -17.8814565434
 H       -8.5386239091      -19.6708478894      -20.3724565434
 H       -6.5633767282      -19.6708486618      -20.3724570493
 H       -7.5510009876      -17.9602348107      -20.3724565434
 H       -6.9826239091      -16.9757768328      -20.3724565434
 H       -5.0073767282      -16.9757776053      -20.3724570493
 H       -5.9950009876      -15.2651637541      -20.3724565434
 H       -5.9950005684      -21.1394095098      -10.2499260566
 H       -5.9950005684      -21.1394095098      -12.8994565434
 H       -5.9950005684      -21.1394095098       -5.2679260566
 H       -5.9950005684      -21.1394095098       -7.9174565434
 H       -5.9950005684      -21.1394095098       -0.2859260566
 H       -5.9950005684      -21.1394095098       -2.9354565434
 H       -5.9950005684      -21.1394095098        4.6960739434
 H       -5.9950005684      -21.1394095098        2.0465434566
 H       -5.9950005684      -21.1394095098        9.6780739434
 H       -5.9950005684      -21.1394095098        7.0285434566
 H       -5.9950005684      -21.1394095098       14.6600739434
 H       -5.9950005684      -21.1394095098       12.0105434566
 H       -5.9950005684      -21.1394095098       19.6420739434
 H       -5.9950005684      -21.1394095098       16.9925434566
 H       -7.5510000000      -19.1006441000       21.0569958000
 H       -5.9950000000      -16.4055730434       21.0569958000
 H       -8.5386239091      -14.2807057762      -20.3724565434
 H       -6.5633767282      -14.2807065487      -20.3724570493
 H       -7.5510009876      -12.5700926975      -20.3724565434
 H       -6.9826239091      -11.5856347196      -20.3724565434
 H       -5.0073767282      -11.5856354921      -20.3724570493
 H       -5.9950009876       -9.8750216409      -20.3724565434
 H       -7.5510000000      -13.7105019868       21.0569958000
 H       -5.9950000000      -11.0154309303       21.0569958000
 H       -8.5386239091       -8.8905636631      -20.3724565434
 H       -6.5633767282       -8.8905644355      -20.3724570493
 H       -7.5510009876       -7.1799505844      -20.3724565434
 H       -6.9826239091       -6.1954926065      -20.3724565434
 H       -5.0073767282       -6.1954933789      -20.3724570493
 H       -5.9950009876       -4.4848795278      -20.3724565434
 H       -7.5510000000       -8.3203598737       21.0569958000
 H       -5.9950000000       -5.6252888171       21.0569958000
 H       -8.5386239091       -3.5004215499      -20.3724565434
 H       -6.5633767282       -3.5004223224      -20.3724570493
 H       -7.5510009876       -1.7898084712      -20.3724565434
 H       -6.9826239091       -0.8053504933      -20.3724565434
 H       -5.0073767282       -0.8053512658      -20.3724570493
 H       -5.9950009876        0.9052625854      -20.3724565434
 H       -7.5510000000       -2.9302177605       21.0569958000
 H       -5.9950000000       -0.2351467040       21.0569958000
 H       -8.5386239091        1.8897205633      -20.3724565434
 H       -6.5633767282        1.8897197908      -20.3724570493
 H       -7.5510009876        3.6003336420      -20.3724565434
 H       -6.9826239091        4.5847916198      -20.3724565434
 H       -5.0073767282        4.5847908474      -20.3724570493
 H       -5.9950009876        6.2954046985      -20.3724565434
 H       -7.5510000000        2.4599243526       21.0569958000
 H       -5.9950000000        5.1549954092       21.0569958000
 H       -8.5386239091        7.2798626764      -20.3724565434
 H       -6.5633767282        7.2798619039      -20.3724570493
 H       -7.5510009876        8.9904757551      -20.3724565434
 H       -6.9826239091        9.9749337330      -20.3724565434
 H       -5.0073767282        9.9749329605      -20.3724570493
 H       -5.9950009876       11.6855468117      -20.3724565434
 H       -7.5510000000        7.8500664658       21.0569958000
 H       -5.9950000000       10.5451375223       21.0569958000
 H       -8.5386239091       12.6700047896      -20.3724565434
 H       -7.5510009876       14.3806178683      -20.3724565434
 H       -6.5633767282       12.6700040171      -20.3724570493
 H       -6.9826239091       15.3650758461      -20.3724565434
 H       -5.0073767282       15.3650750737      -20.3724570493
 H       -5.9950009876       17.0756889248      -20.3724565434
 H       -7.5510000000       13.2402085789       21.0569958000
 H       -5.9950000000       15.9352796355       21.0569958000
 H       -7.5510009876       19.7707599814      -17.7229260566
 H       -8.5386239091       18.0601469027      -20.3724565434
 H       -7.5510009876       19.7707599814      -20.3724565434
 H       -6.5633767282       18.0601461302      -20.3724570493
 H       -7.5510009876       19.7707599814      -12.7409260566
 H       -7.5510009876       19.7707599814      -15.3904565434
 H       -7.5510009876       19.7707599814       -7.7589260566
 H       -7.5510009876       19.7707599814      -10.4084565434
 H       -7.5510009876       19.7707599814       -2.7769260566
 H       -7.5510009876       19.7707599814       -5.4264565434
 H       -7.5510009876       19.7707599814        2.2050739434
 H       -7.5510009876       19.7707599814       -0.4444565434
 H       -7.5510009876       19.7707599814        7.1870739434
 H       -7.5510009876       19.7707599814        4.5375434566
 H       -7.5510009876       19.7707599814       12.1690739434
 H       -7.5510009876       19.7707599814        9.5195434566
 H       -7.5510009876       19.7707599814       17.1510739434
 H       -7.5510009876       19.7707599814       14.5015434566
 H       -7.5510009876       19.7707599814       19.4835434566
 H       -7.5510000000       18.6303506921       21.0569958000
 H       -2.8830005684      -21.1394095098      -15.2319260566
 H       -2.8830005684      -21.1394095098      -17.8814565434
 H       -5.4266239091      -19.6708478894      -20.3724565434
 H       -4.4390009876      -17.9602348107      -20.3724565434
 H       -3.4513767282      -19.6708486618      -20.3724570493
 H       -3.8706239091      -16.9757768328      -20.3724565434
 H       -1.8953767282      -16.9757776053      -20.3724570493
 H       -2.8830009876      -15.2651637541      -20.3724565434
 H       -2.8830005684      -21.1394095098      -10.2499260566
 H       -2.8830005684      -21.1394095098      -12.8994565434
 H       -2.8830005684      -21.1394095098       -5.2679260566
 H       -2.8830005684      -21.1394095098       -7.9174565434
 H       -2.8830005684      -21.1394095098       -0.2859260566
 H       -2.8830005684      -21.1394095098       -2.9354565434
 H       -2.8830005684      -21.1394095098        4.6960739434
 H       -2.8830005684      -21.1394095098        2.0465434566
 H       -2.8830005684      -21.1394095098        9.6780739434
 H       -2.8830005684      -21.1394095098        7.0285434566
 H       -2.8830005684      -21.1394095098       14.6600739434
 H       -2.8830005684      -21.1394095098       12.0105434566
 H       -2.8830005684      -21.1394095098       19.6420739434
 H       -2.8830005684      -21.1394095098       16.9925434566
 H       -4.4390000000      -19.1006441000       21.0569958000
 H       -2.8830000000      -16.4055730434       21.0569958000
 H       -5.4266239091      -14.2807057762      -20.3724565434
 H       -4.4390009876      -12.5700926975      -20.3724565434
 H       -3.4513767282      -14.2807065487      -20.3724570493
 H       -3.8706239091      -11.5856347196      -20.3724565434
 H       -1.8953767282      -11.5856354921      -20.3724570493
 H       -2.8830009876       -9.8750216409      -20.3724565434
 H       -4.4390000000      -13.7105019868       21.0569958000
 H       -2.8830000000      -11.0154309303       21.0569958000
 H       -5.4266239091       -8.8905636631      -20.3724565434
 H       -4.4390009876       -7.1799505844      -20.3724565434
 H       -3.4513767282       -8.8905644355      -20.3724570493
 H       -3.8706239091       -6.1954926065      -20.3724565434
 H       -1.8953767282       -6.1954933789      -20.3724570493
 H       -2.8830009876       -4.4848795278      -20.3724565434
 H       -4.4390000000       -8.3203598737       21.0569958000
 H       -2.8830000000       -5.6252888171       21.0569958000
 H       -5.4266239091       -3.5004215499      -20.3724565434
 H       -4.4390009876       -1.7898084712      -20.3724565434
 H       -3.4513767282       -3.5004223224      -20.3724570493
 H       -3.8706239091       -0.8053504933      -20.3724565434
 H       -1.8953767282       -0.8053512658      -20.3724570493
 H       -2.8830009876        0.9052625854      -20.3724565434
 H       -4.4390000000       -2.9302177605       21.0569958000
 H       -2.8830000000       -0.2351467040       21.0569958000
 H       -5.4266239091        1.8897205633      -20.3724565434
 H       -4.4390009876        3.6003336420      -20.3724565434
 H       -3.4513767282        1.8897197908      -20.3724570493
 H       -3.8706239091        4.5847916198      -20.3724565434
 H       -1.8953767282        4.5847908474      -20.3724570493
 H       -2.8830009876        6.2954046985      -20.3724565434
 H       -4.4390000000        2.4599243526       21.0569958000
 H       -2.8830000000        5.1549954092       21.0569958000
 H       -5.4266239091        7.2798626764      -20.3724565434
 H       -4.4390009876        8.9904757551      -20.3724565434
 H       -3.4513767282        7.2798619039      -20.3724570493
 H       -3.8706239091        9.9749337330      -20.3724565434
 H       -1.8953767282        9.9749329605      -20.3724570493
 H       -2.8830009876       11.6855468117      -20.3724565434
 H       -4.4390000000        7.8500664658       21.0569958000
 H       -2.8830000000       10.5451375223       21.0569958000
 H       -5.4266239091       12.6700047896      -20.3724565434
 H       -4.4390009876       14.3806178683      -20.3724565434
 H       -3.4513767282       12.6700040171      -20.3724570493
 H       -3.8706239091       15.3650758461      -20.3724565434
 H       -1.8953767282       15.3650750737      -20.3724570493
 H       -2.8830009876       17.0756889248      -20.3724565434
 H       -4.4390000000       13.2402085789       21.0569958000
 H       -2.8830000000       15.9352796355       21.0569958000
 H       -4.4390009876       19.7707599814      -17.7229260566
 H       -5.4266239091       18.0601469027      -20.3724565434
 H       -4.4390009876       19.7707599814      -20.3724565434
 H       -3.4513767282       18.0601461302      -20.3724570493
 H       -4.4390009876       19.7707599814      -12.7409260566
 H       -4.4390009876       19.7707599814      -15.3904565434
 H       -4.4390009876       19.7707599814       -7.7589260566
 H       -4.4390009876       19.7707599814      -10.4084565434
 H       -4.4390009876       19.7707599814       -2.7769260566
 H       -4.4390009876       19.7707599814       -5.4264565434
 H       -4.4390009876       19.7707599814        2.2050739434
 H       -4.4390009876       19.7707599814       -0.4444565434
 H       -4.4390009876       19.7707599814        7.1870739434
 H       -4.4390009876       19.7707599814        4.5375434566
 H       -4.4390009876       19.7707599814       12.1690739434
 H       -4.4390009876       19.7707599814        9.5195434566
 H       -4.4390009876       19.7707599814       17.1510739434
 H       -4.4390009876       19.7707599814       14.5015434566
 H       -4.4390009876       19.7707599814       19.4835434566
 H       -4.4390000000       18.6303506921       21.0569958000
 H        0.2289994316      -21.1394095098      -15.2319260566
 H        0.2289994316      -21.1394095098      -17.8814565434
 H       -2.3146239091      -19.6708478894      -20.3724565434
 H       -0.3393767282      -19.6708486618      -20.3724570493
 H       -1.3270009876      -17.9602348107      -20.3724565434
 H       -0.7586239091      -16.9757768328      -20.3724565434
 H        0.2289990124      -15.2651637541      -20.3724565434
 H        1.2166232718      -16.9757776053      -20.3724570493
 H        0.2289994316      -21.1394095098      -10.2499260566
 H        0.2289994316      -21.1394095098      -12.8994565434
 H        0.2289994316      -21.1394095098       -5.2679260566
 H        0.2289994316      -21.1394095098       -7.9174565434
 H        0.2289994316      -21.1394095098       -0.2859260566
 H        0.2289994316      -21.1394095098       -2.9354565434
 H        0.2289994316      -21.1394095098        4.6960739434
 H        0.2289994316      -21.1394095098        2.0465434566
 H        0.2289994316      -21.1394095098        9.6780739434
 H        0.2289994316      -21.1394095098        7.0285434566
 H        0.2289994316      -21.1394095098       14.6600739434
 H        0.2289994316      -21.1394095098       12.0105434566
 H        0.2289994316      -21.1394095098       19.6420739434
 H        0.2289994316      -21.1394095098       16.9925434566
 H       -1.3270000000      -19.1006441000       21.0569958000
 H        0.2290000000      -16.4055730434       21.0569958000
 H       -2.3146239091      -14.2807057762      -20.3724565434
 H       -0.3393767282      -14.2807065487      -20.3724570493
 H       -1.3270009876      -12.5700926975      -20.3724565434
 H       -0.7586239091      -11.5856347196      -20.3724565434
 H        0.2289990124       -9.8750216409      -20.3724565434
 H        1.2166232718      -11.5856354921      -20.3724570493
 H       -1.3270000000      -13.7105019868       21.0569958000
 H        0.2290000000      -11.0154309303       21.0569958000
 H       -2.3146239091       -8.8905636631      -20.3724565434
 H       -0.3393767282       -8.8905644355      -20.3724570493
 H       -1.3270009876       -7.1799505844      -20.3724565434
 H       -0.7586239091       -6.1954926065      -20.3724565434
 H        0.2289990124       -4.4848795278      -20.3724565434
 H        1.2166232718       -6.1954933789      -20.3724570493
 H       -1.3270000000       -8.3203598737       21.0569958000
 H        0.2290000000       -5.6252888171       21.0569958000
 H       -2.3146239091       -3.5004215499      -20.3724565434
 H       -0.3393767282       -3.5004223224      -20.3724570493
 H       -1.3270009876       -1.7898084712      -20.3724565434
 H       -0.7586239091       -0.8053504933      -20.3724565434
 H        0.2289990124        0.9052625854      -20.3724565434
 H        1.2166232718       -0.8053512658      -20.3724570493
 H       -1.3270000000       -2.9302177605       21.0569958000
 H        0.2290000000       -0.2351467040       21.0569958000
 H       -2.3146239091        1.8897205633      -20.3724565434
 H       -0.3393767282        1.8897197908      -20.3724570493
 H       -1.3270009876        3.6003336420      -20.3724565434
 H       -0.7586239091        4.5847916198      -20.3724565434
 H        0.2289990124        6.2954046985      -20.3724565434
 H        1.2166232718        4.5847908474      -20.3724570493
 H       -1.3270000000        2.4599243526       21.0569958000
 H        0.2290000000        5.1549954092       21.0569958000
 H       -2.3146239091        7.2798626764      -20.3724565434
 H       -0.3393767282        7.2798619039      -20.3724570493
 H       -1.3270009876        8.9904757551      -20.3724565434
 H       -0.7586239091        9.9749337330      -20.3724565434
 H        0.2289990124       11.6855468117      -20.3724565434
 H        1.2166232718        9.9749329605      -20.3724570493
 H       -1.3270000000        7.8500664658       21.0569958000
 H        0.2290000000       10.5451375223       21.0569958000
 H       -2.3146239091       12.6700047896      -20.3724565434
 H       -1.3270009876       14.3806178683      -20.3724565434
 H       -0.3393767282       12.6700040171      -20.3724570493
 H       -0.7586239091       15.3650758461      -20.3724565434
 H        0.2289990124       17.0756889248      -20.3724565434
 H        1.2166232718       15.3650750737      -20.3724570493
 H       -1.3270000000       13.2402085789       21.0569958000
 H        0.2290000000       15.9352796355       21.0569958000
 H       -1.3270009876       19.7707599814      -17.7229260566
 H       -2.3146239091       18.0601469027      -20.3724565434
 H       -1.3270009876       19.7707599814      -20.3724565434
 H       -0.3393767282       18.0601461302      -20.3724570493
 H       -1.3270009876       19.7707599814      -12.7409260566
 H       -1.3270009876       19.7707599814      -15.3904565434
 H       -1.3270009876       19.7707599814       -7.7589260566
 H       -1.3270009876       19.7707599814      -10.4084565434
 H       -1.3270009876       19.7707599814       -2.7769260566
 H       -1.3270009876       19.7707599814       -5.4264565434
 H       -1.3270009876       19.7707599814        2.2050739434
 H       -1.3270009876       19.7707599814       -0.4444565434
 H       -1.3270009876       19.7707599814        7.1870739434
 H       -1.3270009876       19.7707599814        4.5375434566
 H       -1.3270009876       19.7707599814       12.1690739434
 H       -1.3270009876       19.7707599814        9.5195434566
 H       -1.3270009876       19.7707599814       17.1510739434
 H       -1.3270009876       19.7707599814       14.5015434566
 H       -1.3270009876       19.7707599814       19.4835434566
 H       -1.3270000000       18.6303506921       21.0569958000
 H        3.3409994316      -21.1394095098      -15.2319260566
 H        3.3409994316      -21.1394095098      -17.8814565434
 H        0.7973760909      -19.6708478894      -20.3724565434
 H        2.7726232718      -19.6708486618      -20.3724570493
 H        1.7849990124      -17.9602348107      -20.3724565434
 H        2.3533760909      -16.9757768328      -20.3724565434
 H        4.3286232718      -16.9757776053      -20.3724570493
 H        3.3409990124      -15.2651637541      -20.3724565434
 H        3.3409994316      -21.1394095098      -10.2499260566
 H        3.3409994316      -21.1394095098      -12.8994565434
 H        3.3409994316      -21.1394095098       -5.2679260566
 H        3.3409994316      -21.1394095098       -7.9174565434
 H        3.3409994316      -21.1394095098       -0.2859260566
 H        3.3409994316      -21.1394095098       -2.9354565434
 H        3.3409994316      -21.1394095098        4.6960739434
 H        3.3409994316      -21.1394095098        2.0465434566
 H        3.3409994316      -21.1394095098        9.6780739434
 H        3.3409994316      -21.1394095098        7.0285434566
 H        3.3409994316      -21.1394095098       14.6600739434
 H        3.3409994316      -21.1394095098       12.0105434566
 H        3.3409994316      -21.1394095098       19.6420739434
 H        3.3409994316      -21.1394095098       16.9925434566
 H        1.7850000000      -19.1006441000       21.0569958000
 H        3.3410000000      -16.4055730434       21.0569958000
 H        0.7973760909      -14.2807057762      -20.3724565434
 H        2.7726232718      -14.2807065487      -20.3724570493
 H        1.7849990124      -12.5700926975      -20.3724565434
 H        2.3533760909      -11.5856347196      -20.3724565434
 H        4.3286232718      -11.5856354921      -20.3724570493
 H        3.3409990124       -9.8750216409      -20.3724565434
 H        1.7850000000      -13.7105019868       21.0569958000
 H        3.3410000000      -11.0154309303       21.0569958000
 H        0.7973760909       -8.8905636631      -20.3724565434
 H        2.7726232718       -8.8905644355      -20.3724570493
 H        1.7849990124       -7.1799505844      -20.3724565434
 H        2.3533760909       -6.1954926065      -20.3724565434
 H        4.3286232718       -6.1954933789      -20.3724570493
 H        3.3409990124       -4.4848795278      -20.3724565434
 H        1.7850000000       -8.3203598737       21.0569958000
 H        3.3410000000       -5.6252888171       21.0569958000
 H        0.7973760909       -3.5004215499      -20.3724565434
 H        2.7726232718       -3.5004223224      -20.3724570493
 H        1.7849990124       -1.7898084712      -20.3724565434
 H        2.3533760909       -0.8053504933      -20.3724565434
 H        4.3286232718       -0.8053512658      -20.3724570493
 H        3.3409990124        0.9052625854      -20.3724565434
 H        1.7850000000       -2.9302177605       21.0569958000
 H        3.3410000000       -0.2351467040       21.0569958000
 H        0.7973760909        1.8897205633      -20.3724565434
 H        2.7726232718        1.8897197908      -20.3724570493
 H        1.7849990124        3.6003336420      -20.3724565434
 H        2.3533760909        4.5847916198      -20.3724565434
 H        4.3286232718        4.5847908474      -20.3724570493
 H        3.3409990124        6.2954046985      -20.3724565434
 H        1.7850000000        2.4599243526       21.0569958000
 H        3.3410000000        5.1549954092       21.0569958000
 H        0.7973760909        7.2798626764      -20.3724565434
 H        2.7726232718        7.2798619039      -20.3724570493
 H        1.7849990124        8.9904757551      -20.3724565434
 H        2.3533760909        9.9749337330      -20.3724565434
 H        4.3286232718        9.9749329605      -20.3724570493
 H        3.3409990124       11.6855468117      -20.3724565434
 H        1.7850000000        7.8500664658       21.0569958000
 H        3.3410000000       10.5451375223       21.0569958000
 H        0.7973760909       12.6700047896      -20.3724565434
 H        1.7849990124       14.3806178683      -20.3724565434
 H        2.7726232718       12.6700040171      -20.3724570493
 H        2.3533760909       15.3650758461      -20.3724565434
 H        4.3286232718       15.3650750737      -20.3724570493
 H        3.3409990124       17.0756889248      -20.3724565434
 H        1.7850000000       13.2402085789       21.0569958000
 H        3.3410000000       15.9352796355       21.0569958000
 H        1.7849990124       19.7707599814      -17.7229260566
 H        0.7973760909       18.0601469027      -20.3724565434
 H        1.7849990124       19.7707599814      -20.3724565434
 H        2.7726232718       18.0601461302      -20.3724570493
 H        1.7849990124       19.7707599814      -12.7409260566
 H        1.7849990124       19.7707599814      -15.3904565434
 H        1.7849990124       19.7707599814       -7.7589260566
 H        1.7849990124       19.7707599814      -10.4084565434
 H        1.7849990124       19.7707599814       -2.7769260566
 H        1.7849990124       19.7707599814       -5.4264565434
 H        1.7849990124       19.7707599814        2.2050739434
 H        1.7849990124       19.7707599814       -0.4444565434
 H        1.7849990124       19.7707599814        7.1870739434
 H        1.7849990124       19.7707599814        4.5375434566
 H        1.7849990124       19.7707599814       12.1690739434
 H        1.7849990124       19.7707599814        9.5195434566
 H        1.7849990124       19.7707599814       17.1510739434
 H        1.7849990124       19.7707599814       14.5015434566
 H        1.7849990124       19.7707599814       19.4835434566
 H        1.7850000000       18.6303506921       21.0569958000
 H        6.4529994316      -21.1394095098      -15.2319260566
 H        6.4529994316      -21.1394095098      -17.8814565434
 H        3.9093760909      -19.6708478894      -20.3724565434
 H        5.8846232718      -19.6708486618      -20.3724570493
 H        4.8969990124      -17.9602348107      -20.3724565434
 H        5.4653760909      -16.9757768328      -20.3724565434
 H        6.4529990124      -15.2651637541      -20.3724565434
 H        7.4406232718      -16.9757776053      -20.3724570493
 H        6.4529994316      -21.1394095098      -10.2499260566
 H        6.4529994316      -21.1394095098      -12.8994565434
 H        6.4529994316      -21.1394095098       -5.2679260566
 H        6.4529994316      -21.1394095098       -7.9174565434
 H        6.4529994316      -21.1394095098       -0.2859260566
 H        6.4529994316      -21.1394095098       -2.9354565434
 H        6.4529994316      -21.1394095098        4.6960739434
 H        6.4529994316      -21.1394095098        2.0465434566
 H        6.4529994316      -21.1394095098        9.6780739434
 H        6.4529994316      -21.1394095098        7.0285434566
 H        6.4529994316      -21.1394095098       14.6600739434
 H        6.4529994316      -21.1394095098       12.0105434566
 H        6.4529994316      -21.1394095098       19.6420739434
 H        6.4529994316      -21.1394095098       16.9925434566
 H        4.8970000000      -19.1006441000       21.0569958000
 H        6.4530000000      -16.4055730434       21.0569958000
 H        3.9093760909      -14.2807057762      -20.3724565434
 H        5.8846232718      -14.2807065487      -20.3724570493
 H        4.8969990124      -12.5700926975      -20.3724565434
 H        5.4653760909      -11.5856347196      -20.3724565434
 H        6.4529990124       -9.8750216409      -20.3724565434
 H        7.4406232718      -11.5856354921      -20.3724570493
 H        4.8970000000      -13.7105019868       21.0569958000
 H        6.4530000000      -11.0154309303       21.0569958000
 H        3.9093760909       -8.8905636631      -20.3724565434
 H        5.8846232718       -8.8905644355      -20.3724570493
 H        4.8969990124       -7.1799505844      -20.3724565434
 H        5.4653760909       -6.1954926065      -20.3724565434
 H        6.4529990124       -4.4848795278      -20.3724565434
 H        7.4406232718       -6.1954933789      -20.3724570493
 H        4.8970000000       -8.3203598737       21.0569958000
 H        6.4530000000       -5.6252888171       21.0569958000
 H        3.9093760909       -3.5004215499      -20.3724565434
 H        5.8846232718       -3.5004223224      -20.3724570493
 H        4.8969990124       -1.7898084712      -20.3724565434
 H        5.4653760909       -0.8053504933      -20.3724565434
 H        6.4529990124        0.9052625854      -20.3724565434
 H        7.4406232718       -0.8053512658      -20.3724570493
 H        4.8970000000       -2.9302177605       21.0569958000
 H        6.4530000000       -0.2351467040       21.0569958000
 H        3.9093760909        1.8897205633      -20.3724565434
 H        5.8846232718        1.8897197908      -20.3724570493
 H        4.8969990124        3.6003336420      -20.3724565434
 H        5.4653760909        4.5847916198      -20.3724565434
 H        6.4529990124        6.2954046985      -20.3724565434
 H        7.4406232718        4.5847908474      -20.3724570493
 H        4.8970000000        2.4599243526       21.0569958000
 H        6.4530000000        5.1549954092       21.0569958000
 H        3.9093760909        7.2798626764      -20.3724565434
 H        5.8846232718        7.2798619039      -20.3724570493
 H        4.8969990124        8.9904757551      -20.3724565434
 H        5.4653760909        9.9749337330      -20.3724565434
 H        6.4529990124       11.6855468117      -20.3724565434
 H        7.4406232718        9.9749329605      -20.3724570493
 H        4.8970000000        7.8500664658       21.0569958000
 H        6.4530000000       10.5451375223       21.0569958000
 H        3.9093760909       12.6700047896      -20.3724565434
 H        4.8969990124       14.3806178683      -20.3724565434
 H        5.8846232718       12.6700040171      -20.3724570493
 H        5.4653760909       15.3650758461      -20.3724565434
 H        6.4529990124       17.0756889248      -20.3724565434
 H        7.4406232718       15.3650750737      -20.3724570493
 H        4.8970000000       13.2402085789       21.0569958000
 H        6.4530000000       15.9352796355       21.0569958000
 H        4.8969990124       19.7707599814      -17.7229260566
 H        3.9093760909       18.0601469027      -20.3724565434
 H        4.8969990124       19.7707599814      -20.3724565434
 H        5.8846232718       18.0601461302      -20.3724570493
 H        4.8969990124       19.7707599814      -12.7409260566
 H        4.8969990124       19.7707599814      -15.3904565434
 H        4.8969990124       19.7707599814       -7.7589260566
 H        4.8969990124       19.7707599814      -10.4084565434
 H        4.8969990124       19.7707599814       -2.7769260566
 H        4.8969990124       19.7707599814       -5.4264565434
 H        4.8969990124       19.7707599814        2.2050739434
 H        4.8969990124       19.7707599814       -0.4444565434
 H        4.8969990124       19.7707599814        7.1870739434
 H        4.8969990124       19.7707599814        4.5375434566
 H        4.8969990124       19.7707599814       12.1690739434
 H        4.8969990124       19.7707599814        9.5195434566
 H        4.8969990124       19.7707599814       17.1510739434
 H        4.8969990124       19.7707599814       14.5015434566
 H        4.8969990124       19.7707599814       19.4835434566
 H        4.8970000000       18.6303506921       21.0569958000
 H        9.5649994316      -21.1394095098      -15.2319260566
 H        9.5649994316      -21.1394095098      -17.8814565434
 H        7.0213760909      -19.6708478894      -20.3724565434
 H        8.9966232718      -19.6708486618      -20.3724570493
 H        8.0089990124      -17.9602348107      -20.3724565434
 H        8.5773760909      -16.9757768328      -20.3724565434
 H       10.5526232718      -16.9757776053      -20.3724570493
 H        9.5649990124      -15.2651637541      -20.3724565434
 H        9.5649994316      -21.1394095098      -10.2499260566
 H        9.5649994316      -21.1394095098      -12.8994565434
 H        9.5649994316      -21.1394095098       -5.2679260566
 H        9.5649994316      -21.1394095098       -7.9174565434
 H        9.5649994316      -21.1394095098       -0.2859260566
 H        9.5649994316      -21.1394095098       -2.9354565434
 H        9.5649994316      -21.1394095098        4.6960739434
 H        9.5649994316      -21.1394095098        2.0465434566
 H        9.5649994316      -21.1394095098        9.6780739434
 H        9.5649994316      -21.1394095098        7.0285434566
 H        9.5649994316      -21.1394095098       14.6600739434
 H        9.5649994316      -21.1394095098       12.0105434566
 H        9.5649994316      -21.1394095098       19.6420739434
 H        9.5649994316      -21.1394095098       16.9925434566
 H        8.0090000000      -19.1006441000       21.0569958000
 H        9.5650000000      -16.4055730434       21.0569958000
 H        7.0213760909      -14.2807057762      -20.3724565434
 H        8.9966232718      -14.2807065487      -20.3724570493
 H        8.0089990124      -12.5700926975      -20.3724565434
 H        8.5773760909      -11.5856347196      -20.3724565434
 H       10.5526232718      -11.5856354921      -20.3724570493
 H        9.5649990124       -9.8750216409      -20.3724565434
 H        8.0090000000      -13.7105019868       21.0569958000
 H        9.5650000000      -11.0154309303       21.0569958000
 H        7.0213760909       -8.8905636631      -20.3724565434
 H        8.9966232718       -8.8905644355      -20.3724570493
 H        8.0089990124       -7.1799505844      -20.3724565434
 H        8.5773760909       -6.1954926065      -20.3724565434
 H       10.5526232718       -6.1954933789      -20.3724570493
 H        9.5649990124       -4.4848795278      -20.3724565434
 H        8.0090000000       -8.3203598737       21.0569958000
 H        9.5650000000       -5.6252888171       21.0569958000
 H        7.0213760909       -3.5004215499      -20.3724565434
 H        8.9966232718       -3.5004223224      -20.3724570493
 H        8.0089990124       -1.7898084712      -20.3724565434
 H        8.5773760909       -0.8053504933      -20.3724565434
 H       10.5526232718       -0.8053512658      -20.3724570493
 H        9.5649990124        0.9052625854      -20.3724565434
 H        8.0090000000       -2.9302177605       21.0569958000
 H        9.5650000000       -0.2351467040       21.0569958000
 H        7.0213760909        1.8897205633      -20.3724565434
 H        8.9966232718        1.8897197908      -20.3724570493
 H        8.0089990124        3.6003336420      -20.3724565434
 H        8.5773760909        4.5847916198      -20.3724565434
 H       10.5526232718        4.5847908474      -20.3724570493
 H        9.5649990124        6.2954046985      -20.3724565434
 H        8.0090000000        2.4599243526       21.0569958000
 H        9.5650000000        5.1549954092       21.0569958000
 H        7.0213760909        7.2798626764      -20.3724565434
 H        8.9966232718        7.2798619039      -20.3724570493
 H        8.0089990124        8.9904757551      -20.3724565434
 H        8.5773760909        9.9749337330      -20.3724565434
 H       10.5526232718        9.9749329605      -20.3724570493
 H        9.5649990124       11.6855468117      -20.3724565434
 H        8.0090000000        7.8500664658       21.0569958000
 H        9.5650000000       10.5451375223       21.0569958000
 H        7.0213760909       12.6700047896      -20.3724565434
 H        8.0089990124       14.3806178683      -20.3724565434
 H        8.9966232718       12.6700040171      -20.3724570493
 H        8.5773760909       15.3650758461      -20.3724565434
 H       10.5526232718       15.3650750737      -20.3724570493
 H        9.5649990124       17.0756889248      -20.3724565434
 H        8.0090000000       13.2402085789       21.0569958000
 H        9.5650000000       15.9352796355       21.0569958000
 H        8.0089990124       19.7707599814      -17.7229260566
 H        7.0213760909       18.0601469027      -20.3724565434
 H        8.0089990124       19.7707599814      -20.3724565434
 H        8.9966232718       18.0601461302      -20.3724570493
 H        8.0089990124       19.7707599814      -12.7409260566
 H        8.0089990124       19.7707599814      -15.3904565434
 H        8.0089990124       19.7707599814       -7.7589260566
 H        8.0089990124       19.7707599814      -10.4084565434
 H        8.0089990124       19.7707599814       -2.7769260566
 H        8.0089990124       19.7707599814       -5.4264565434
 H        8.0089990124       19.7707599814        2.2050739434
 H        8.0089990124       19.7707599814       -0.4444565434
 H        8.0089990124       19.7707599814        7.1870739434
 H        8.0089990124       19.7707599814        4.5375434566
 H        8.0089990124       19.7707599814       12.1690739434
 H        8.0089990124       19.7707599814        9.5195434566
 H        8.0089990124       19.7707599814       17.1510739434
 H        8.0089990124       19.7707599814       14.5015434566
 H        8.0089990124       19.7707599814       19.4835434566
 H        8.0090000000       18.6303506921       21.0569958000
 H       12.6769994316      -21.1394095098      -15.2319260566
 H       12.6769994316      -21.1394095098      -17.8814565434
 H       10.1333760909      -19.6708478894      -20.3724565434
 H       11.1209990124      -17.9602348107      -20.3724565434
 H       12.1086232718      -19.6708486618      -20.3724570493
 H       11.6893760909      -16.9757768328      -20.3724565434
 H       13.6646232718      -16.9757776053      -20.3724570493
 H       12.6769990124      -15.2651637541      -20.3724565434
 H       12.6769994316      -21.1394095098      -10.2499260566
 H       12.6769994316      -21.1394095098      -12.8994565434
 H       12.6769994316      -21.1394095098       -5.2679260566
 H       12.6769994316      -21.1394095098       -7.9174565434
 H       12.6769994316      -21.1394095098       -0.2859260566
 H       12.6769994316      -21.1394095098       -2.9354565434
 H       12.6769994316      -21.1394095098        4.6960739434
 H       12.6769994316      -21.1394095098        2.0465434566
 H       12.6769994316      -21.1394095098        9.6780739434
 H       12.6769994316      -21.1394095098        7.0285434566
 H       12.6769994316      -21.1394095098       14.6600739434
 H       12.6769994316      -21.1394095098       12.0105434566
 H       12.6769994316      -21.1394095098       19.6420739434
 H       12.6769994316      -21.1394095098       16.9925434566
 H       11.1210000000      -19.1006441000       21.0569958000
 H       12.6770000000      -16.4055730434       21.0569958000
 H       10.1333760909      -14.2807057762      -20.3724565434
 H       11.1209990124      -12.5700926975      -20.3724565434
 H       12.1086232718      -14.2807065487      -20.3724570493
 H       11.6893760909      -11.5856347196      -20.3724565434
 H       13.6646232718      -11.5856354921      -20.3724570493
 H       12.6769990124       -9.8750216409      -20.3724565434
 H       11.1210000000      -13.7105019868       21.0569958000
 H       12.6770000000      -11.0154309303       21.0569958000
 H       10.1333760909       -8.8905636631      -20.3724565434
 H       11.1209990124       -7.1799505844      -20.3724565434
 H       12.1086232718       -8.8905644355      -20.3724570493
 H       11.6893760909       -6.1954926065      -20.3724565434
 H       13.6646232718       -6.1954933789      -20.3724570493
 H       12.6769990124       -4.4848795278      -20.3724565434
 H       11.1210000000       -8.3203598737       21.0569958000
 H       12.6770000000       -5.6252888171       21.0569958000
 H       10.1333760909       -3.5004215499      -20.3724565434
 H       11.1209990124       -1.7898084712      -20.3724565434
 H       12.1086232718       -3.5004223224      -20.3724570493
 H       11.6893760909       -0.8053504933      -20.3724565434
 H       13.6646232718       -0.8053512658      -20.3724570493
 H       12.6769990124        0.9052625854      -20.3724565434
 H       11.1210000000       -2.9302177605       21.0569958000
 H       12.6770000000       -0.2351467040       21.0569958000
 H       10.1333760909        1.8897205633      -20.3724565434
 H       11.1209990124        3.6003336420      -20.3724565434
 H       12.1086232718        1.8897197908      -20.3724570493
 H       11.6893760909        4.5847916198      -20.3724565434
 H       13.6646232718        4.5847908474      -20.3724570493
 H       12.6769990124        6.2954046985      -20.3724565434
 H       11.1210000000        2.4599243526       21.0569958000
 H       12.6770000000        5.1549954092       21.0569958000
 H       10.1333760909        7.2798626764      -20.3724565434
 H       11.1209990124        8.9904757551      -20.3724565434
 H       12.1086232718        7.2798619039      -20.3724570493
 H       11.6893760909        9.9749337330      -20.3724565434
 H       13.6646232718        9.9749329605      -20.3724570493
 H       12.6769990124       11.6855468117      -20.3724565434
 H       11.1210000000        7.8500664658       21.0569958000
 H       12.6770000000       10.5451375223       21.0569958000
 H       10.1333760909       12.6700047896      -20.3724565434
 H       11.1209990124       14.3806178683      -20.3724565434
 H       12.1086232718       12.6700040171      -20.3724570493
 H       11.6893760909       15.3650758461      -20.3724565434
 H       13.6646232718       15.3650750737      -20.3724570493
 H       12.6769990124       17.0756889248      -20.3724565434
 H       11.1210000000       13.2402085789       21.0569958000
 H       12.6770000000       15.9352796355       21.0569958000
 H       11.1209990124       19.7707599814      -17.7229260566
 H       10.1333760909       18.0601469027      -20.3724565434
 H       11.1209990124       19.7707599814      -20.3724565434
 H       12.1086232718       18.0601461302      -20.3724570493
 H       11.1209990124       19.7707599814      -12.7409260566
 H       11.1209990124       19.7707599814      -15.3904565434
 H       11.1209990124       19.7707599814       -7.7589260566
 H       11.1209990124       19.7707599814      -10.4084565434
 H       11.1209990124       19.7707599814       -2.7769260566
 H       11.1209990124       19.7707599814       -5.4264565434
 H       11.1209990124       19.7707599814        2.2050739434
 H       11.1209990124       19.7707599814       -0.4444565434
 H       11.1209990124       19.7707599814        7.1870739434
 H       11.1209990124       19.7707599814        4.5375434566
 H       11.1209990124       19.7707599814       12.1690739434
 H       11.1209990124       19.7707599814        9.5195434566
 H       11.1209990124       19.7707599814       17.1510739434
 H       11.1209990124       19.7707599814       14.5015434566
 H       11.1209990124       19.7707599814       19.4835434566
 H       11.1210000000       18.6303506921       21.0569958000
 H       15.7889994316      -21.1394095098      -15.2319260566
 H       15.7889994316      -21.1394095098      -17.8814565434
 H       13.2453760909      -19.6708478894      -20.3724565434
 H       15.2206232718      -19.6708486618      -20.3724570493
 H       14.2329990124      -17.9602348107      -20.3724565434
 H       14.8013760909      -16.9757768328      -20.3724565434
 H       16.7766232718      -16.9757776053      -20.3724570493
 H       15.7889990124      -15.2651637541      -20.3724565434
 H       15.7889994316      -21.1394095098      -10.2499260566
 H       15.7889994316      -21.1394095098      -12.8994565434
 H       15.7889994316      -21.1394095098       -5.2679260566
 H       15.7889994316      -21.1394095098       -7.9174565434
 H       15.7889994316      -21.1394095098       -0.2859260566
 H       15.7889994316      -21.1394095098       -2.9354565434
 H       15.7889994316      -21.1394095098        4.6960739434
 H       15.7889994316      -21.1394095098        2.0465434566
 H       15.7889994316      -21.1394095098        9.6780739434
 H       15.7889994316      -21.1394095098        7.0285434566
 H       15.7889994316      -21.1394095098       14.6600739434
 H       15.7889994316      -21.1394095098       12.0105434566
 H       15.7889994316      -21.1394095098       19.6420739434
 H       15.7889994316      -21.1394095098       16.9925434566
 H       14.2330000000      -19.1006441000       21.0569958000
 H       15.7890000000      -16.4055730434       21.0569958000
 H       13.2453760909      -14.2807057762      -20.3724565434
 H       15.2206232718      -14.2807065487      -20.3724570493
 H       14.2329990124      -12.5700926975      -20.3724565434
 H       14.8013760909      -11.5856347196      -20.3724565434
 H       16.7766232718      -11.5856354921      -20.3724570493
 H       15.7889990124       -9.8750216409      -20.3724565434
 H       14.2330000000      -13.7105019868       21.0569958000
 H       15.7890000000      -11.0154309303       21.0569958000
 H       13.2453760909       -8.8905636631      -20.3724565434
 H       15.2206232718       -8.8905644355      -20.3724570493
 H       14.2329990124       -7.1799505844      -20.3724565434
 H       14.8013760909       -6.1954926065      -20.3724565434
 H       16.7766232718       -6.1954933789      -20.3724570493
 H       15.7889990124       -4.4848795278      -20.3724565434
 H       14.2330000000       -8.3203598737       21.0569958000
 H       15.7890000000       -5.6252888171       21.0569958000
 H       13.2453760909       -3.5004215499      -20.3724565434
 H       15.2206232718       -3.5004223224      -20.3724570493
 H       14.2329990124       -1.7898084712      -20.3724565434
 H       14.8013760909       -0.8053504933      -20.3724565434
 H       16.7766232718       -0.8053512658      -20.3724570493
 H       15.7889990124        0.9052625854      -20.3724565434
 H       14.2330000000       -2.9302177605       21.0569958000
 H       15.7890000000       -0.2351467040       21.0569958000
 H       13.2453760909        1.8897205633      -20.3724565434
 H       15.2206232718        1.8897197908      -20.3724570493
 H       14.2329990124        3.6003336420      -20.3724565434
 H       14.8013760909        4.5847916198      -20.3724565434
 H       16.7766232718        4.5847908474      -20.3724570493
 H       15.7889990124        6.2954046985      -20.3724565434
 H       14.2330000000        2.4599243526       21.0569958000
 H       15.7890000000        5.1549954092       21.0569958000
 H       13.2453760909        7.2798626764      -20.3724565434
 H       15.2206232718        7.2798619039      -20.3724570493
 H       14.2329990124        8.9904757551      -20.3724565434
 H       14.8013760909        9.9749337330      -20.3724565434
 H       16.7766232718        9.9749329605      -20.3724570493
 H       15.7889990124       11.6855468117      -20.3724565434
 H       14.2330000000        7.8500664658       21.0569958000
 H       15.7890000000       10.5451375223       21.0569958000
 H       13.2453760909       12.6700047896      -20.3724565434
 H       14.2329990124       14.3806178683      -20.3724565434
 H       15.2206232718       12.6700040171      -20.3724570493
 H       14.8013760909       15.3650758461      -20.3724565434
 H       16.7766232718       15.3650750737      -20.3724570493
 H       15.7889990124       17.0756889248      -20.3724565434
 H       14.2330000000       13.2402085789       21.0569958000
 H       15.7890000000       15.9352796355       21.0569958000
 H       14.2329990124       19.7707599814      -17.7229260566
 H       13.2453760909       18.0601469027      -20.3724565434
 H       14.2329990124       19.7707599814      -20.3724565434
 H       15.2206232718       18.0601461302      -20.3724570493
 H       14.2329990124       19.7707599814      -12.7409260566
 H       14.2329990124       19.7707599814      -15.3904565434
 H       14.2329990124       19.7707599814       -7.7589260566
 H       14.2329990124       19.7707599814      -10.4084565434
 H       14.2329990124       19.7707599814       -2.7769260566
 H       14.2329990124       19.7707599814       -5.4264565434
 H       14.2329990124       19.7707599814        2.2050739434
 H       14.2329990124       19.7707599814       -0.4444565434
 H       14.2329990124       19.7707599814        7.1870739434
 H       14.2329990124       19.7707599814        4.5375434566
 H       14.2329990124       19.7707599814       12.1690739434
 H       14.2329990124       19.7707599814        9.5195434566
 H       14.2329990124       19.7707599814       17.1510739434
 H       14.2329990124       19.7707599814       14.5015434566
 H       14.2329990124       19.7707599814       19.4835434566
 H       14.2330000000       18.6303506921       21.0569958000
 H       18.9009994316      -21.1394095098      -15.2319260566
 H       19.8886223531      -19.4287964311      -15.2319260566
 H       18.9009994316      -21.1394095098      -17.8814565434
 H       19.8886223531      -19.4287964311      -17.8814565434
 H       16.3573760909      -19.6708478894      -20.3724565434
 H       17.3449990124      -17.9602348107      -20.3724565434
 H       18.3326232718      -19.6708486618      -20.3724570493
 H       19.8886232718      -16.9757776053      -17.7229255507
 H       17.9133760909      -16.9757768328      -20.3724565434
 H       19.8886232718      -16.9757776053      -20.3724570493
 H       18.9009990124      -15.2651637541      -20.3724565434
 H       18.9009994316      -21.1394095098      -10.2499260566
 H       19.8886223531      -19.4287964311      -10.2499260566
 H       18.9009994316      -21.1394095098      -12.8994565434
 H       19.8886223531      -19.4287964311      -12.8994565434
 H       19.8886232718      -16.9757776053      -12.7409255507
 H       19.8886232718      -16.9757776053      -15.3904570493
 H       18.9009994316      -21.1394095098       -5.2679260566
 H       19.8886223531      -19.4287964311       -5.2679260566
 H       18.9009994316      -21.1394095098       -7.9174565434
 H       19.8886223531      -19.4287964311       -7.9174565434
 H       19.8886232718      -16.9757776053       -7.7589255507
 H       19.8886232718      -16.9757776053      -10.4084570493
 H       18.9009994316      -21.1394095098       -0.2859260566
 H       19.8886223531      -19.4287964311       -0.2859260566
 H       18.9009994316      -21.1394095098       -2.9354565434
 H       19.8886223531      -19.4287964311       -2.9354565434
 H       19.8886232718      -16.9757776053       -2.7769255507
 H       19.8886232718      -16.9757776053       -5.4264570493
 H       18.9009994316      -21.1394095098        4.6960739434
 H       19.8886223531      -19.4287964311        4.6960739434
 H       18.9009994316      -21.1394095098        2.0465434566
 H       19.8886223531      -19.4287964311        2.0465434566
 H       19.8886232718      -16.9757776053        2.2050744493
 H       19.8886232718      -16.9757776053       -0.4444570493
 H       18.9009994316      -21.1394095098        9.6780739434
 H       19.8886223531      -19.4287964311        9.6780739434
 H       18.9009994316      -21.1394095098        7.0285434566
 H       19.8886223531      -19.4287964311        7.0285434566
 H       19.8886232718      -16.9757776053        7.1870744493
 H       19.8886232718      -16.9757776053        4.5375429507
 H       18.9009994316      -21.1394095098       14.6600739434
 H       19.8886223531      -19.4287964311       14.6600739434
 H       18.9009994316      -21.1394095098       12.0105434566
 H       19.8886223531      -19.4287964311       12.0105434566
 H       19.8886232718      -16.9757776053       12.1690744493
 H       19.8886232718      -16.9757776053        9.5195429507
 H       18.9009994316      -21.1394095098       19.6420739434
 H       19.8886223531      -19.4287964311       19.6420739434
 H       18.9009994316      -21.1394095098       16.9925434566
 H       19.8886223531      -19.4287964311       16.9925434566
 H       19.8886232718      -16.9757776053       17.1510744493
 H       19.8886232718      -16.9757776053       14.5015429507
 H       17.3450000000      -19.1006441000       21.0569958000
 H       19.8886232718      -16.9757776053       19.4835429507
 H       18.9010000000      -16.4055730434       21.0569958000
 H       19.8886223531      -14.0386543180      -15.2319260566
 H       19.8886223531      -14.0386543180      -17.8814565434
 H       16.3573760909      -14.2807057762      -20.3724565434
 H       17.3449990124      -12.5700926975      -20.3724565434
 H       18.3326232718      -14.2807065487      -20.3724570493
 H       19.8886232718      -11.5856354921      -17.7229255507
 H       17.9133760909      -11.5856347196      -20.3724565434
 H       19.8886232718      -11.5856354921      -20.3724570493
 H       18.9009990124       -9.8750216409      -20.3724565434
 H       19.8886223531      -14.0386543180      -10.2499260566
 H       19.8886223531      -14.0386543180      -12.8994565434
 H       19.8886232718      -11.5856354921      -12.7409255507
 H       19.8886232718      -11.5856354921      -15.3904570493
 H       19.8886223531      -14.0386543180       -5.2679260566
 H       19.8886223531      -14.0386543180       -7.9174565434
 H       19.8886232718      -11.5856354921       -7.7589255507
 H       19.8886232718      -11.5856354921      -10.4084570493
 H       19.8886223531      -14.0386543180       -0.2859260566
 H       19.8886223531      -14.0386543180       -2.9354565434
 H       19.8886232718      -11.5856354921       -2.7769255507
 H       19.8886232718      -11.5856354921       -5.4264570493
 H       19.8886223531      -14.0386543180        4.6960739434
 H       19.8886223531      -14.0386543180        2.0465434566
 H       19.8886232718      -11.5856354921        2.2050744493
 H       19.8886232718      -11.5856354921       -0.4444570493
 H       19.8886223531      -14.0386543180        9.6780739434
 H       19.8886223531      -14.0386543180        7.0285434566
 H       19.8886232718      -11.5856354921        7.1870744493
 H       19.8886232718      -11.5856354921        4.5375429507
 H       19.8886223531      -14.0386543180       14.6600739434
 H       19.8886223531      -14.0386543180       12.0105434566
 H       19.8886232718      -11.5856354921       12.1690744493
 H       19.8886232718      -11.5856354921        9.5195429507
 H       19.8886223531      -14.0386543180       19.6420739434
 H       19.8886223531      -14.0386543180       16.9925434566
 H       19.8886232718      -11.5856354921       17.1510744493
 H       19.8886232718      -11.5856354921       14.5015429507
 H       17.3450000000      -13.7105019868       21.0569958000
 H       19.8886232718      -11.5856354921       19.4835429507
 H       18.9010000000      -11.0154309303       21.0569958000
 H       19.8886223531       -8.6485122048      -15.2319260566
 H       19.8886223531       -8.6485122048      -17.8814565434
 H       16.3573760909       -8.8905636631      -20.3724565434
 H       17.3449990124       -7.1799505844      -20.3724565434
 H       18.3326232718       -8.8905644355      -20.3724570493
 H       19.8886232718       -6.1954933789      -17.7229255507
 H       17.9133760909       -6.1954926065      -20.3724565434
 H       19.8886232718       -6.1954933789      -20.3724570493
 H       18.9009990124       -4.4848795278      -20.3724565434
 H       19.8886223531       -8.6485122048      -10.2499260566
 H       19.8886223531       -8.6485122048      -12.8994565434
 H       19.8886232718       -6.1954933789      -12.7409255507
 H       19.8886232718       -6.1954933789      -15.3904570493
 H       19.8886223531       -8.6485122048       -5.2679260566
 H       19.8886223531       -8.6485122048       -7.9174565434
 H       19.8886232718       -6.1954933789       -7.7589255507
 H       19.8886232718       -6.1954933789      -10.4084570493
 H       19.8886223531       -8.6485122048       -0.2859260566
 H       19.8886223531       -8.6485122048       -2.9354565434
 H       19.8886232718       -6.1954933789       -2.7769255507
 H       19.8886232718       -6.1954933789       -5.4264570493
 H       19.8886223531       -8.6485122048        4.6960739434
 H       19.8886223531       -8.6485122048        2.0465434566
 H       19.8886232718       -6.1954933789        2.2050744493
 H       19.8886232718       -6.1954933789       -0.4444570493
 H       19.8886223531       -8.6485122048        9.6780739434
 H       19.8886223531       -8.6485122048        7.0285434566
 H       19.8886232718       -6.1954933789        7.1870744493
 H       19.8886232718       -6.1954933789        4.5375429507
 H       19.8886223531       -8.6485122048       14.6600739434
 H       19.8886223531       -8.6485122048       12.0105434566
 H       19.8886232718       -6.1954933789       12.1690744493
 H       19.8886232718       -6.1954933789        9.5195429507
 H       19.8886223531       -8.6485122048       19.6420739434
 H       19.8886223531       -8.6485122048       16.9925434566
 H       19.8886232718       -6.1954933789       17.1510744493
 H       19.8886232718       -6.1954933789       14.5015429507
 H       17.3450000000       -8.3203598737       21.0569958000
 H       19.8886232718       -6.1954933789       19.4835429507
 H       18.9010000000       -5.6252888171       21.0569958000
 H       19.8886223531       -3.2583700917      -15.2319260566
 H       19.8886223531       -3.2583700917      -17.8814565434
 H       16.3573760909       -3.5004215499      -20.3724565434
 H       17.3449990124       -1.7898084712      -20.3724565434
 H       18.3326232718       -3.5004223224      -20.3724570493
 H       19.8886232718       -0.8053512658      -17.7229255507
 H       17.9133760909       -0.8053504933      -20.3724565434
 H       19.8886232718       -0.8053512658      -20.3724570493
 H       18.9009990124        0.9052625854      -20.3724565434
 H       19.8886223531       -3.2583700917      -10.2499260566
 H       19.8886223531       -3.2583700917      -12.8994565434
 H       19.8886232718       -0.8053512658      -12.7409255507
 H       19.8886232718       -0.8053512658      -15.3904570493
 H       19.8886223531       -3.2583700917       -5.2679260566
 H       19.8886223531       -3.2583700917       -7.9174565434
 H       19.8886232718       -0.8053512658       -7.7589255507
 H       19.8886232718       -0.8053512658      -10.4084570493
 H       19.8886223531       -3.2583700917       -0.2859260566
 H       19.8886223531       -3.2583700917       -2.9354565434
 H       19.8886232718       -0.8053512658       -2.7769255507
 H       19.8886232718       -0.8053512658       -5.4264570493
 H       19.8886223531       -3.2583700917        4.6960739434
 H       19.8886223531       -3.2583700917        2.0465434566
 H       19.8886232718       -0.8053512658        2.2050744493
 H       19.8886232718       -0.8053512658       -0.4444570493
 H       19.8886223531       -3.2583700917        9.6780739434
 H       19.8886223531       -3.2583700917        7.0285434566
 H       19.8886232718       -0.8053512658        7.1870744493
 H       19.8886232718       -0.8053512658        4.5375429507
 H       19.8886223531       -3.2583700917       14.6600739434
 H       19.8886223531       -3.2583700917       12.0105434566
 H       19.8886232718       -0.8053512658       12.1690744493
 H       19.8886232718       -0.8053512658        9.5195429507
 H       19.8886223531       -3.2583700917       19.6420739434
 H       19.8886223531       -3.2583700917       16.9925434566
 H       19.8886232718       -0.8053512658       17.1510744493
 H       19.8886232718       -0.8053512658       14.5015429507
 H       17.3450000000       -2.9302177605       21.0569958000
 H       19.8886232718       -0.8053512658       19.4835429507
 H       18.9010000000       -0.2351467040       21.0569958000
 H       19.8886223531        2.1317720215      -15.2319260566
 H       19.8886223531        2.1317720215      -17.8814565434
 H       16.3573760909        1.8897205633      -20.3724565434
 H       17.3449990124        3.6003336420      -20.3724565434
 H       18.3326232718        1.8897197908      -20.3724570493
 H       19.8886232718        4.5847908474      -17.7229255507
 H       17.9133760909        4.5847916198      -20.3724565434
 H       19.8886232718        4.5847908474      -20.3724570493
 H       18.9009990124        6.2954046985      -20.3724565434
 H       19.8886223531        2.1317720215      -10.2499260566
 H       19.8886223531        2.1317720215      -12.8994565434
 H       19.8886232718        4.5847908474      -12.7409255507
 H       19.8886232718        4.5847908474      -15.3904570493
 H       19.8886223531        2.1317720215       -5.2679260566
 H       19.8886223531        2.1317720215       -7.9174565434
 H       19.8886232718        4.5847908474       -7.7589255507
 H       19.8886232718        4.5847908474      -10.4084570493
 H       19.8886223531        2.1317720215       -0.2859260566
 H       19.8886223531        2.1317720215       -2.9354565434
 H       19.8886232718        4.5847908474       -2.7769255507
 H       19.8886232718        4.5847908474       -5.4264570493
 H       19.8886223531        2.1317720215        4.6960739434
 H       19.8886223531        2.1317720215        2.0465434566
 H       19.8886232718        4.5847908474        2.2050744493
 H       19.8886232718        4.5847908474       -0.4444570493
 H       19.8886223531        2.1317720215        9.6780739434
 H       19.8886223531        2.1317720215        7.0285434566
 H       19.8886232718        4.5847908474        7.1870744493
 H       19.8886232718        4.5847908474        4.5375429507
 H       19.8886223531        2.1317720215       14.6600739434
 H       19.8886223531        2.1317720215       12.0105434566
 H       19.8886232718        4.5847908474       12.1690744493
 H       19.8886232718        4.5847908474        9.5195429507
 H       19.8886223531        2.1317720215       19.6420739434
 H       19.8886223531        2.1317720215       16.9925434566
 H       19.8886232718        4.5847908474       17.1510744493
 H       19.8886232718        4.5847908474       14.5015429507
 H       17.3450000000        2.4599243526       21.0569958000
 H       19.8886232718        4.5847908474       19.4835429507
 H       18.9010000000        5.1549954092       21.0569958000
 H       19.8886223531        7.5219141346      -15.2319260566
 H       19.8886223531        7.5219141346      -17.8814565434
 H       16.3573760909        7.2798626764      -20.3724565434
 H       17.3449990124        8.9904757551      -20.3724565434
 H       18.3326232718        7.2798619039      -20.3724570493
 H       19.8886232718        9.9749329605      -17.7229255507
 H       17.9133760909        9.9749337330      -20.3724565434
 H       19.8886232718        9.9749329605      -20.3724570493
 H       18.9009990124       11.6855468117      -20.3724565434
 H       19.8886223531        7.5219141346      -10.2499260566
 H       19.8886223531        7.5219141346      -12.8994565434
 H       19.8886232718        9.9749329605      -12.7409255507
 H       19.8886232718        9.9749329605      -15.3904570493
 H       19.8886223531        7.5219141346       -5.2679260566
 H       19.8886223531        7.5219141346       -7.9174565434
 H       19.8886232718        9.9749329605       -7.7589255507
 H       19.8886232718        9.9749329605      -10.4084570493
 H       19.8886223531        7.5219141346       -0.2859260566
 H       19.8886223531        7.5219141346       -2.9354565434
 H       19.8886232718        9.9749329605       -2.7769255507
 H       19.8886232718        9.9749329605       -5.4264570493
 H       19.8886223531        7.5219141346        4.6960739434
 H       19.8886223531        7.5219141346        2.0465434566
 H       19.8886232718        9.9749329605        2.2050744493
 H       19.8886232718        9.9749329605       -0.4444570493
 H       19.8886223531        7.5219141346        9.6780739434
 H       19.8886223531        7.5219141346        7.0285434566
 H       19.8886232718        9.9749329605        7.1870744493
 H       19.8886232718        9.9749329605        4.5375429507
 H       19.8886223531        7.5219141346       14.6600739434
 H       19.8886223531        7.5219141346       12.0105434566
 H       19.8886232718        9.9749329605       12.1690744493
 H       19.8886232718        9.9749329605        9.5195429507
 H       19.8886223531        7.5219141346       19.6420739434
 H       19.8886223531        7.5219141346       16.9925434566
 H       19.8886232718        9.9749329605       17.1510744493
 H       19.8886232718        9.9749329605       14.5015429507
 H       17.3450000000        7.8500664658       21.0569958000
 H       19.8886232718        9.9749329605       19.4835429507
 H       18.9010000000       10.5451375223       21.0569958000
 H       19.8886223531       12.9120562478      -15.2319260566
 H       19.8886223531       12.9120562478      -17.8814565434
 H       16.3573760909       12.6700047896      -20.3724565434
 H       17.3449990124       14.3806178683      -20.3724565434
 H       18.3326232718       12.6700040171      -20.3724570493
 H       19.8886232718       15.3650750737      -17.7229255507
 H       17.9133760909       15.3650758461      -20.3724565434
 H       19.8886232718       15.3650750737      -20.3724570493
 H       18.9009990124       17.0756889248      -20.3724565434
 H       19.8886223531       12.9120562478      -10.2499260566
 H       19.8886223531       12.9120562478      -12.8994565434
 H       19.8886232718       15.3650750737      -12.7409255507
 H       19.8886232718       15.3650750737      -15.3904570493
 H       19.8886223531       12.9120562478       -5.2679260566
 H       19.8886223531       12.9120562478       -7.9174565434
 H       19.8886232718       15.3650750737       -7.7589255507
 H       19.8886232718       15.3650750737      -10.4084570493
 H       19.8886223531       12.9120562478       -0.2859260566
 H       19.8886223531       12.9120562478       -2.9354565434
 H       19.8886232718       15.3650750737       -2.7769255507
 H       19.8886232718       15.3650750737       -5.4264570493
 H       19.8886223531       12.9120562478        4.6960739434
 H       19.8886223531       12.9120562478        2.0465434566
 H       19.8886232718       15.3650750737        2.2050744493
 H       19.8886232718       15.3650750737       -0.4444570493
 H       19.8886223531       12.9120562478        9.6780739434
 H       19.8886223531       12.9120562478        7.0285434566
 H       19.8886232718       15.3650750737        7.1870744493
 H       19.8886232718       15.3650750737        4.5375429507
 H       19.8886223531       12.9120562478       14.6600739434
 H       19.8886223531       12.9120562478       12.0105434566
 H       19.8886232718       15.3650750737       12.1690744493
 H       19.8886232718       15.3650750737        9.5195429507
 H       19.8886223531       12.9120562478       19.6420739434
 H       19.8886223531       12.9120562478       16.9925434566
 H       19.8886232718       15.3650750737       17.1510744493
 H       19.8886232718       15.3650750737       14.5015429507
 H       17.3450000000       13.2402085789       21.0569958000
 H       19.8886232718       15.3650750737       19.4835429507
 H       18.9010000000       15.9352796355       21.0569958000
 H       19.8886223531       18.3021983609      -15.2319260566
 H       17.3449990124       19.7707599814      -17.7229260566
 H       19.8886223531       18.3021983609      -17.8814565434
 H       16.3573760909       18.0601469027      -20.3724565434
 H       17.3449990124       19.7707599814      -20.3724565434
 H       18.3326232718       18.0601461302      -20.3724570493
 H       19.8886223531       18.3021983609      -10.2499260566
 H       17.3449990124       19.7707599814      -12.7409260566
 H       19.8886223531       18.3021983609      -12.8994565434
 H       17.3449990124       19.7707599814      -15.3904565434
 H       19.8886223531       18.3021983609       -5.2679260566
 H       17.3449990124       19.7707599814       -7.7589260566
 H       19.8886223531       18.3021983609       -7.9174565434
 H       17.3449990124       19.7707599814      -10.4084565434
 H       19.8886223531       18.3021983609       -0.2859260566
 H       17.3449990124       19.7707599814       -2.7769260566
 H       19.8886223531       18.3021983609       -2.9354565434
 H       17.3449990124       19.7707599814       -5.4264565434
 H       19.8886223531       18.3021983609        4.6960739434
 H       17.3449990124       19.7707599814        2.2050739434
 H       19.8886223531       18.3021983609        2.0465434566
 H       17.3449990124       19.7707599814       -0.4444565434
 H       19.8886223531       18.3021983609        9.6780739434
 H       17.3449990124       19.7707599814        7.1870739434
 H       19.8886223531       18.3021983609        7.0285434566
 H       17.3449990124       19.7707599814        4.5375434566
 H       19.8886223531       18.3021983609       14.6600739434
 H       17.3449990124       19.7707599814       12.1690739434
 H       19.8886223531       18.3021983609       12.0105434566
 H       17.3449990124       19.7707599814        9.5195434566
 H       19.8886223531       18.3021983609       19.6420739434
 H       17.3449990124       19.7707599814       17.1510739434
 H       19.8886223531       18.3021983609       16.9925434566
 H       17.3449990124       19.7707599814       14.5015434566
 H       17.3449990124       19.7707599814       19.4835434566
 H       17.3450000000       18.6303506921       21.0569958000
