646

Ga      500.0010000000        0.0000000000        1.4133125000
As      501.4143125000        1.4133125000        0.0000000000
Ga      500.0010000000        2.8266250000        4.2399375000
As      501.4143125000        4.2399375000        2.8266250000
Ga      502.8276250000        0.0000000000        4.2399375000
As      504.2409375000        1.4133125000        2.8266250000
Ga      502.8276250000        2.8266250000        1.4133125000
As      504.2409375000        4.2399375000        0.0000000000
Ga      505.6542500000        0.0000000000        1.4133125000
As      507.0675625000        1.4133125000        0.0000000000
Ga      505.6542500000        2.8266250000        4.2399375000
As      507.0675625000        4.2399375000        2.8266250000
Ga      508.4808750000        0.0000000000        4.2399375000
As      509.8941875000        1.4133125000        2.8266250000
Ga      508.4808750000        2.8266250000        1.4133125000
As      509.8941875000        4.2399375000        0.0000000000
Ga      511.3075000000        0.0000000000        1.4133125000
As      512.7208125000        1.4133125000        0.0000000000
Ga      511.3075000000        2.8266250000        4.2399375000
As      512.7208125000        4.2399375000        2.8266250000
Ga      514.1341250000        0.0000000000        4.2399375000
As      515.5474375000        1.4133125000        2.8266250000
Ga      514.1341250000        2.8266250000        1.4133125000
As      515.5474375000        4.2399375000        0.0000000000
Ga      516.9607500000        0.0000000000        1.4133125000
As      518.3740625000        1.4133125000        0.0000000000
Ga      516.9607500000        2.8266250000        4.2399375000
As      518.3740625000        4.2399375000        2.8266250000
Ga      519.7873750000        0.0000000000        4.2399375000
As      521.2006875000        1.4133125000        2.8266250000
Ga      519.7873750000        2.8266250000        1.4133125000
As      521.2006875000        4.2399375000        0.0000000000
Ga      522.6140000000        0.0000000000        1.4133125000
As      524.0273125000        1.4133125000        0.0000000000
Ga      522.6140000000        2.8266250000        4.2399375000
As      524.0273125000        4.2399375000        2.8266250000
Ga      525.4406250000        0.0000000000        4.2399375000
As      526.8539375000        1.4133125000        2.8266250000
Ga      525.4406250000        2.8266250000        1.4133125000
As      526.8539375000        4.2399375000        0.0000000000
Ga      528.2672500000        0.0000000000        1.4133125000
As      529.6805625000        1.4133125000        0.0000000000
Ga      528.2672500000        2.8266250000        4.2399375000
As      529.6805625000        4.2399375000        2.8266250000
Ga      531.0938750000        0.0000000000        4.2399375000
As      532.5071875000        1.4133125000        2.8266250000
Ga      531.0938750000        2.8266250000        1.4133125000
As      532.5071875000        4.2399375000        0.0000000000
Ga      533.9205000000        0.0000000000        1.4133125000
As      535.3338125000        1.4133125000        0.0000000000
Ga      533.9205000000        2.8266250000        4.2399375000
As      535.3338125000        4.2399375000        2.8266250000
Ga      536.7471250000        0.0000000000        4.2399375000
As      538.1604375000        1.4133125000        2.8266250000
Ga      536.7471250000        2.8266250000        1.4133125000
As      538.1604375000        4.2399375000        0.0000000000
Ga      539.5737500000        0.0000000000        1.4133125000
As      540.9870625000        1.4133125000        0.0000000000
Ga      539.5737500000        2.8266250000        4.2399375000
As      540.9870625000        4.2399375000        2.8266250000
Ga      542.4003750000        0.0000000000        4.2399375000
As      543.8136875000        1.4133125000        2.8266250000
Ga      542.4003750000        2.8266250000        1.4133125000
As      543.8136875000        4.2399375000        0.0000000000
Ga      545.2270000000        0.0000000000        1.4133125000
As      546.6403125000        1.4133125000        0.0000000000
Ga      545.2270000000        2.8266250000        4.2399375000
As      546.6403125000        4.2399375000        2.8266250000
Ga      548.0536250000        0.0000000000        4.2399375000
As      549.4669375000        1.4133125000        2.8266250000
Ga      548.0536250000        2.8266250000        1.4133125000
As      549.4669375000        4.2399375000        0.0000000000
Ga      550.8802500000        0.0000000000        1.4133125000
As      552.2935625000        1.4133125000        0.0000000000
Ga      550.8802500000        2.8266250000        4.2399375000
As      552.2935625000        4.2399375000        2.8266250000
Ga      553.7068750000        0.0000000000        4.2399375000
As      555.1201875000        1.4133125000        2.8266250000
Ga      553.7068750000        2.8266250000        1.4133125000
As      555.1201875000        4.2399375000        0.0000000000
Ga      556.5335000000        0.0000000000        1.4133125000
As      557.9468125000        1.4133125000        0.0000000000
Ga      556.5335000000        2.8266250000        4.2399375000
As      557.9468125000        4.2399375000        2.8266250000
Ga      559.3601250000        0.0000000000        4.2399375000
As      560.7734375000        1.4133125000        2.8266250000
Ga      559.3601250000        2.8266250000        1.4133125000
As      560.7734375000        4.2399375000        0.0000000000
Ga      562.1867500000        0.0000000000        1.4133125000
As      563.6000625000        1.4133125000        0.0000000000
Ga      562.1867500000        2.8266250000        4.2399375000
As      563.6000625000        4.2399375000        2.8266250000
Ga      565.0133750000        0.0000000000        4.2399375000
As      566.4266875000        1.4133125000        2.8266250000
Ga      565.0133750000        2.8266250000        1.4133125000
As      566.4266875000        4.2399375000        0.0000000000
Ga      567.8400000000        0.0000000000        1.4133125000
As      569.2533125000        1.4133125000        0.0000000000
Ga      567.8400000000        2.8266250000        4.2399375000
As      569.2533125000        4.2399375000        2.8266250000
Ga      570.6666250000        0.0000000000        4.2399375000
As      572.0799375000        1.4133125000        2.8266250000
Ga      570.6666250000        2.8266250000        1.4133125000
As      572.0799375000        4.2399375000        0.0000000000
Ga      573.4932500000        0.0000000000        1.4133125000
As      574.9065625000        1.4133125000        0.0000000000
Ga      573.4932500000        2.8266250000        4.2399375000
As      574.9065625000        4.2399375000        2.8266250000
Ga      576.3198750000        0.0000000000        4.2399375000
As      577.7331875000        1.4133125000        2.8266250000
Ga      576.3198750000        2.8266250000        1.4133125000
As      577.7331875000        4.2399375000        0.0000000000
Ga      579.1465000000        0.0000000000        1.4133125000
As      580.5598125000        1.4133125000        0.0000000000
Ga      579.1465000000        2.8266250000        4.2399375000
As      580.5598125000        4.2399375000        2.8266250000
Ga      581.9731250000        0.0000000000        4.2399375000
As      583.3864375000        1.4133125000        2.8266250000
Ga      581.9731250000        2.8266250000        1.4133125000
As      583.3864375000        4.2399375000        0.0000000000
Ga      584.7997500000        0.0000000000        1.4133125000
As      586.2130625000        1.4133125000        0.0000000000
Ga      584.7997500000        2.8266250000        4.2399375000
As      586.2130625000        4.2399375000        2.8266250000
Ga      587.6263750000        0.0000000000        4.2399375000
As      589.0396875000        1.4133125000        2.8266250000
Ga      587.6263750000        2.8266250000        1.4133125000
As      589.0396875000        4.2399375000        0.0000000000
Ga      590.4530000000        0.0000000000        1.4133125000
As      591.8663125000        1.4133125000        0.0000000000
Ga      590.4530000000        2.8266250000        4.2399375000
As      591.8663125000        4.2399375000        2.8266250000
Ga      593.2796250000        0.0000000000        4.2399375000
As      594.6929375000        1.4133125000        2.8266250000
Ga      593.2796250000        2.8266250000        1.4133125000
As      594.6929375000        4.2399375000        0.0000000000
Ga      596.1062500000        0.0000000000        1.4133125000
As      597.5195625000        1.4133125000        0.0000000000
Ga      596.1062500000        2.8266250000        4.2399375000
As      597.5195625000        4.2399375000        2.8266250000
Ga      598.9328750000        0.0000000000        4.2399375000
As      600.3461875000        1.4133125000        2.8266250000
Ga      598.9328750000        2.8266250000        1.4133125000
As      600.3461875000        4.2399375000        0.0000000000
Ga      601.7595000000        0.0000000000        1.4133125000
As      603.1728125000        1.4133125000        0.0000000000
Ga      601.7595000000        2.8266250000        4.2399375000
As      603.1728125000        4.2399375000        2.8266250000
Ga      604.5861250000        0.0000000000        4.2399375000
As      605.9994375000        1.4133125000        2.8266250000
Ga      604.5861250000        2.8266250000        1.4133125000
As      605.9994375000        4.2399375000        0.0000000000
Ga      607.4127500000        0.0000000000        1.4133125000
As      608.8260625000        1.4133125000        0.0000000000
Ga      607.4127500000        2.8266250000        4.2399375000
As      608.8260625000        4.2399375000        2.8266250000
Ga      610.2393750000        0.0000000000        4.2399375000
As      611.6526875000        1.4133125000        2.8266250000
Ga      610.2393750000        2.8266250000        1.4133125000
As      611.6526875000        4.2399375000        0.0000000000
Ga      613.0660000000        0.0000000000        1.4133125000
As      614.4793125000        1.4133125000        0.0000000000
Ga      613.0660000000        2.8266250000        4.2399375000
As      614.4793125000        4.2399375000        2.8266250000
Ga      615.8926250000        0.0000000000        4.2399375000
As      617.3059375000        1.4133125000        2.8266250000
Ga      615.8926250000        2.8266250000        1.4133125000
As      617.3059375000        4.2399375000        0.0000000000
Ga      618.7192500000        0.0000000000        1.4133125000
As      620.1325625000        1.4133125000        0.0000000000
Ga      618.7192500000        2.8266250000        4.2399375000
As      620.1325625000        4.2399375000        2.8266250000
Ga      621.5458750000        0.0000000000        4.2399375000
As      622.9591875000        1.4133125000        2.8266250000
Ga      621.5458750000        2.8266250000        1.4133125000
As      622.9591875000        4.2399375000        0.0000000000
Ga      624.3725000000        0.0000000000        1.4133125000
As      625.7858125000        1.4133125000        0.0000000000
Ga      624.3725000000        2.8266250000        4.2399375000
As      625.7858125000        4.2399375000        2.8266250000
Ga      627.1991250000        0.0000000000        4.2399375000
As      628.6124375000        1.4133125000        2.8266250000
Ga      627.1991250000        2.8266250000        1.4133125000
As      628.6124375000        4.2399375000        0.0000000000
Ga      630.0257500000        0.0000000000        1.4133125000
As      631.4390625000        1.4133125000        0.0000000000
Ga      630.0257500000        2.8266250000        4.2399375000
As      631.4390625000        4.2399375000        2.8266250000
Ga      632.8523750000        0.0000000000        4.2399375000
As      634.2656875000        1.4133125000        2.8266250000
Ga      632.8523750000        2.8266250000        1.4133125000
As      634.2656875000        4.2399375000        0.0000000000
Ga      635.6790000000        0.0000000000        1.4133125000
As      637.0923125000        1.4133125000        0.0000000000
Ga      635.6790000000        2.8266250000        4.2399375000
As      637.0923125000        4.2399375000        2.8266250000
Ga      638.5056250000        0.0000000000        4.2399375000
As      639.9189375000        1.4133125000        2.8266250000
Ga      638.5056250000        2.8266250000        1.4133125000
As      639.9189375000        4.2399375000        0.0000000000
Ga      641.3322500000        0.0000000000        1.4133125000
As      642.7455625000        1.4133125000        0.0000000000
Ga      641.3322500000        2.8266250000        4.2399375000
As      642.7455625000        4.2399375000        2.8266250000
Ga      644.1588750000        0.0000000000        4.2399375000
As      645.5721875000        1.4133125000        2.8266250000
Ga      644.1588750000        2.8266250000        1.4133125000
As      645.5721875000        4.2399375000        0.0000000000
Ga      646.9855000000        0.0000000000        1.4133125000
As      648.3988125000        1.4133125000        0.0000000000
Ga      646.9855000000        2.8266250000        4.2399375000
As      648.3988125000        4.2399375000        2.8266250000
Ga      649.8121250000        0.0000000000        4.2399375000
As      651.2254375000        1.4133125000        2.8266250000
Ga      649.8121250000        2.8266250000        1.4133125000
As      651.2254375000        4.2399375000        0.0000000000
Ga      652.6387500000        0.0000000000        1.4133125000
As      654.0520625000        1.4133125000        0.0000000000
Ga      652.6387500000        2.8266250000        4.2399375000
As      654.0520625000        4.2399375000        2.8266250000
Ga      655.4653750000        0.0000000000        4.2399375000
As      656.8786875000        1.4133125000        2.8266250000
Ga      655.4653750000        2.8266250000        1.4133125000
As      656.8786875000        4.2399375000        0.0000000000
Ga      658.2920000000        0.0000000000        1.4133125000
As      659.7053125000        1.4133125000        0.0000000000
Ga      658.2920000000        2.8266250000        4.2399375000
As      659.7053125000        4.2399375000        2.8266250000
Ga      661.1186250000        0.0000000000        4.2399375000
As      662.5319375000        1.4133125000        2.8266250000
Ga      661.1186250000        2.8266250000        1.4133125000
As      662.5319375000        4.2399375000        0.0000000000
Ga      663.9452500000        0.0000000000        1.4133125000
As      665.3585625000        1.4133125000        0.0000000000
Ga      663.9452500000        2.8266250000        4.2399375000
As      665.3585625000        4.2399375000        2.8266250000
Ga      666.7718750000        0.0000000000        4.2399375000
As      668.1851875000        1.4133125000        2.8266250000
Ga      666.7718750000        2.8266250000        1.4133125000
As      668.1851875000        4.2399375000        0.0000000000
Ga      669.5985000000        0.0000000000        1.4133125000
As      671.0118125000        1.4133125000        0.0000000000
Ga      669.5985000000        2.8266250000        4.2399375000
As      671.0118125000        4.2399375000        2.8266250000
Ga      672.4251250000        0.0000000000        4.2399375000
As      673.8384375000        1.4133125000        2.8266250000
Ga      672.4251250000        2.8266250000        1.4133125000
As      673.8384375000        4.2399375000        0.0000000000
Ga      675.2517500000        0.0000000000        1.4133125000
As      676.6650625000        1.4133125000        0.0000000000
Ga      675.2517500000        2.8266250000        4.2399375000
As      676.6650625000        4.2399375000        2.8266250000
Ga      678.0783750000        0.0000000000        4.2399375000
As      679.4916875000        1.4133125000        2.8266250000
Ga      678.0783750000        2.8266250000        1.4133125000
As      679.4916875000        4.2399375000        0.0000000000
Ga      680.9050000000        0.0000000000        1.4133125000
As      682.3183125000        1.4133125000        0.0000000000
Ga      680.9050000000        2.8266250000        4.2399375000
As      682.3183125000        4.2399375000        2.8266250000
Ga      683.7316250000        0.0000000000        4.2399375000
As      685.1449375000        1.4133125000        2.8266250000
Ga      683.7316250000        2.8266250000        1.4133125000
As      685.1449375000        4.2399375000        0.0000000000
Ga      686.5582500000        0.0000000000        1.4133125000
As      687.9715625000        1.4133125000        0.0000000000
Ga      686.5582500000        2.8266250000        4.2399375000
As      687.9715625000        4.2399375000        2.8266250000
Ga      689.3848750000        0.0000000000        4.2399375000
As      690.7981875000        1.4133125000        2.8266250000
Ga      689.3848750000        2.8266250000        1.4133125000
As      690.7981875000        4.2399375000        0.0000000000
Ga      692.2115000000        0.0000000000        1.4133125000
As      693.6248125000        1.4133125000        0.0000000000
Ga      692.2115000000        2.8266250000        4.2399375000
As      693.6248125000        4.2399375000        2.8266250000
Ga      695.0381250000        0.0000000000        4.2399375000
As      696.4514375000        1.4133125000        2.8266250000
Ga      695.0381250000        2.8266250000        1.4133125000
As      696.4514375000        4.2399375000        0.0000000000
Ga      697.8647500000        0.0000000000        1.4133125000
As      699.2780625000        1.4133125000        0.0000000000
Ga      697.8647500000        2.8266250000        4.2399375000
As      699.2780625000        4.2399375000        2.8266250000
In      700.6913750000        0.0000000000        4.2399375000
As      702.1046875000        1.4133125000        2.8266250000
In      700.6913750000        2.8266250000        1.4133125000
As      702.1046875000        4.2399375000        0.0000000000
In      703.5180000000        0.0000000000        1.4133125000
As      704.9313125000        1.4133125000        0.0000000000
In      703.5180000000        2.8266250000        4.2399375000
As      704.9313125000        4.2399375000        2.8266250000
In      706.3446250000        0.0000000000        4.2399375000
As      707.7579375000        1.4133125000        2.8266250000
In      706.3446250000        2.8266250000        1.4133125000
As      707.7579375000        4.2399375000        0.0000000000
In      709.1712500000        0.0000000000        1.4133125000
As      710.5845625000        1.4133125000        0.0000000000
In      709.1712500000        2.8266250000        4.2399375000
As      710.5845625000        4.2399375000        2.8266250000
In      711.9978750000        0.0000000000        4.2399375000
As      713.4111875000        1.4133125000        2.8266250000
In      711.9978750000        2.8266250000        1.4133125000
As      713.4111875000        4.2399375000        0.0000000000
In      714.8245000000        0.0000000000        1.4133125000
As      716.2378125000        1.4133125000        0.0000000000
In      714.8245000000        2.8266250000        4.2399375000
As      716.2378125000        4.2399375000        2.8266250000
In      717.6511250000        0.0000000000        4.2399375000
As      719.0644375000        1.4133125000        2.8266250000
In      717.6511250000        2.8266250000        1.4133125000
As      719.0644375000        4.2399375000        0.0000000000
In      720.4777500000        0.0000000000        1.4133125000
As      721.8910625000        1.4133125000        0.0000000000
In      720.4777500000        2.8266250000        4.2399375000
As      721.8910625000        4.2399375000        2.8266250000
In      723.3043750000        0.0000000000        4.2399375000
As      724.7176875000        1.4133125000        2.8266250000
In      723.3043750000        2.8266250000        1.4133125000
As      724.7176875000        4.2399375000        0.0000000000
In      726.1310000000        0.0000000000        1.4133125000
As      727.5443125000        1.4133125000        0.0000000000
In      726.1310000000        2.8266250000        4.2399375000
As      727.5443125000        4.2399375000        2.8266250000
In      728.9576250000        0.0000000000        4.2399375000
As      730.3709375000        1.4133125000        2.8266250000
In      728.9576250000        2.8266250000        1.4133125000
As      730.3709375000        4.2399375000        0.0000000000
In      731.7842500000        0.0000000000        1.4133125000
As      733.1975625000        1.4133125000        0.0000000000
In      731.7842500000        2.8266250000        4.2399375000
As      733.1975625000        4.2399375000        2.8266250000
In      734.6108750000        0.0000000000        4.2399375000
As      736.0241875000        1.4133125000        2.8266250000
In      734.6108750000        2.8266250000        1.4133125000
As      736.0241875000        4.2399375000        0.0000000000
In      737.4375000000        0.0000000000        1.4133125000
As      738.8508125000        1.4133125000        0.0000000000
In      737.4375000000        2.8266250000        4.2399375000
As      738.8508125000        4.2399375000        2.8266250000
In      740.2641250000        0.0000000000        4.2399375000
As      741.6774375000        1.4133125000        2.8266250000
In      740.2641250000        2.8266250000        1.4133125000
As      741.6774375000        4.2399375000        0.0000000000
In      743.0907500000        0.0000000000        1.4133125000
As      744.5040625000        1.4133125000        0.0000000000
In      743.0907500000        2.8266250000        4.2399375000
As      744.5040625000        4.2399375000        2.8266250000
In      745.9173750000        0.0000000000        4.2399375000
As      747.3306875000        1.4133125000        2.8266250000
In      745.9173750000        2.8266250000        1.4133125000
As      747.3306875000        4.2399375000        0.0000000000
In      748.7440000000        0.0000000000        1.4133125000
As      750.1573125000        1.4133125000        0.0000000000
In      748.7440000000        2.8266250000        4.2399375000
As      750.1573125000        4.2399375000        2.8266250000
Ga      751.5706250000        0.0000000000        4.2399375000
As      752.9839375000        1.4133125000        2.8266250000
Ga      751.5706250000        2.8266250000        1.4133125000
As      752.9839375000        4.2399375000        0.0000000000
Ga      754.3972500000        0.0000000000        1.4133125000
As      755.8105625000        1.4133125000        0.0000000000
Ga      754.3972500000        2.8266250000        4.2399375000
As      755.8105625000        4.2399375000        2.8266250000
Ga      757.2238750000        0.0000000000        4.2399375000
As      758.6371875000        1.4133125000        2.8266250000
Ga      757.2238750000        2.8266250000        1.4133125000
As      758.6371875000        4.2399375000        0.0000000000
Ga      760.0505000000        0.0000000000        1.4133125000
As      761.4638125000        1.4133125000        0.0000000000
Ga      760.0505000000        2.8266250000        4.2399375000
As      761.4638125000        4.2399375000        2.8266250000
Ga      762.8771250000        0.0000000000        4.2399375000
As      764.2904375000        1.4133125000        2.8266250000
Ga      762.8771250000        2.8266250000        1.4133125000
As      764.2904375000        4.2399375000        0.0000000000
Ga      765.7037500000        0.0000000000        1.4133125000
As      767.1170625000        1.4133125000        0.0000000000
Ga      765.7037500000        2.8266250000        4.2399375000
As      767.1170625000        4.2399375000        2.8266250000
Ga      768.5303750000        0.0000000000        4.2399375000
As      769.9436875000        1.4133125000        2.8266250000
Ga      768.5303750000        2.8266250000        1.4133125000
As      769.9436875000        4.2399375000        0.0000000000
Ga      771.3570000000        0.0000000000        1.4133125000
As      772.7703125000        1.4133125000        0.0000000000
Ga      771.3570000000        2.8266250000        4.2399375000
As      772.7703125000        4.2399375000        2.8266250000
Ga      774.1836250000        0.0000000000        4.2399375000
As      775.5969375000        1.4133125000        2.8266250000
Ga      774.1836250000        2.8266250000        1.4133125000
As      775.5969375000        4.2399375000        0.0000000000
Ga      777.0102500000        0.0000000000        1.4133125000
As      778.4235625000        1.4133125000        0.0000000000
Ga      777.0102500000        2.8266250000        4.2399375000
As      778.4235625000        4.2399375000        2.8266250000
Ga      779.8368750000        0.0000000000        4.2399375000
As      781.2501875000        1.4133125000        2.8266250000
Ga      779.8368750000        2.8266250000        1.4133125000
As      781.2501875000        4.2399375000        0.0000000000
Ga      782.6635000000        0.0000000000        1.4133125000
As      784.0768125000        1.4133125000        0.0000000000
Ga      782.6635000000        2.8266250000        4.2399375000
As      784.0768125000        4.2399375000        2.8266250000
Ga      785.4901250000        0.0000000000        4.2399375000
As      786.9034375000        1.4133125000        2.8266250000
Ga      785.4901250000        2.8266250000        1.4133125000
As      786.9034375000        4.2399375000        0.0000000000
Ga      788.3167500000        0.0000000000        1.4133125000
As      789.7300625000        1.4133125000        0.0000000000
Ga      788.3167500000        2.8266250000        4.2399375000
As      789.7300625000        4.2399375000        2.8266250000
Ga      791.1433750000        0.0000000000        4.2399375000
As      792.5566875000        1.4133125000        2.8266250000
Ga      791.1433750000        2.8266250000        1.4133125000
As      792.5566875000        4.2399375000        0.0000000000
Ga      793.9700000000        0.0000000000        1.4133125000
As      795.3833125000        1.4133125000        0.0000000000
Ga      793.9700000000        2.8266250000        4.2399375000
As      795.3833125000        4.2399375000        2.8266250000
Ga      796.7966250000        0.0000000000        4.2399375000
As      798.2099375000        1.4133125000        2.8266250000
Ga      796.7966250000        2.8266250000        1.4133125000
As      798.2099375000        4.2399375000        0.0000000000
Ga      799.6232500000        0.0000000000        1.4133125000
As      801.0365625000        1.4133125000        0.0000000000
Ga      799.6232500000        2.8266250000        4.2399375000
As      801.0365625000        4.2399375000        2.8266250000
Ga      802.4498750000        0.0000000000        4.2399375000
As      803.8631875000        1.4133125000        2.8266250000
Ga      802.4498750000        2.8266250000        1.4133125000
As      803.8631875000        4.2399375000        0.0000000000
Ga      805.2765000000        0.0000000000        1.4133125000
As      806.6898125000        1.4133125000        0.0000000000
Ga      805.2765000000        2.8266250000        4.2399375000
As      806.6898125000        4.2399375000        2.8266250000
Ga      808.1031250000        0.0000000000        4.2399375000
As      809.5164375000        1.4133125000        2.8266250000
Ga      808.1031250000        2.8266250000        1.4133125000
As      809.5164375000        4.2399375000        0.0000000000
Ga      810.9297500000        0.0000000000        1.4133125000
As      812.3430625000        1.4133125000        0.0000000000
Ga      810.9297500000        2.8266250000        4.2399375000
As      812.3430625000        4.2399375000        2.8266250000
Ga      813.7563750000        0.0000000000        4.2399375000
As      815.1696875000        1.4133125000        2.8266250000
Ga      813.7563750000        2.8266250000        1.4133125000
As      815.1696875000        4.2399375000        0.0000000000
Ga      816.5830000000        0.0000000000        1.4133125000
As      817.9963125000        1.4133125000        0.0000000000
Ga      816.5830000000        2.8266250000        4.2399375000
As      817.9963125000        4.2399375000        2.8266250000
Ga      819.4096250000        0.0000000000        4.2399375000
As      820.8229375000        1.4133125000        2.8266250000
Ga      819.4096250000        2.8266250000        1.4133125000
As      820.8229375000        4.2399375000        0.0000000000
Ga      822.2362500000        0.0000000000        1.4133125000
As      823.6495625000        1.4133125000        0.0000000000
Ga      822.2362500000        2.8266250000        4.2399375000
As      823.6495625000        4.2399375000        2.8266250000
Ga      825.0628750000        0.0000000000        4.2399375000
As      826.4761875000        1.4133125000        2.8266250000
Ga      825.0628750000        2.8266250000        1.4133125000
As      826.4761875000        4.2399375000        0.0000000000
Ga      827.8895000000        0.0000000000        1.4133125000
As      829.3028125000        1.4133125000        0.0000000000
Ga      827.8895000000        2.8266250000        4.2399375000
As      829.3028125000        4.2399375000        2.8266250000
Ga      830.7161250000        0.0000000000        4.2399375000
As      832.1294375000        1.4133125000        2.8266250000
Ga      830.7161250000        2.8266250000        1.4133125000
As      832.1294375000        4.2399375000        0.0000000000
Ga      833.5427500000        0.0000000000        1.4133125000
As      834.9560625000        1.4133125000        0.0000000000
Ga      833.5427500000        2.8266250000        4.2399375000
As      834.9560625000        4.2399375000        2.8266250000
Ga      836.3693750000        0.0000000000        4.2399375000
As      837.7826875000        1.4133125000        2.8266250000
Ga      836.3693750000        2.8266250000        1.4133125000
As      837.7826875000        4.2399375000        0.0000000000
Ga      839.1960000000        0.0000000000        1.4133125000
As      840.6093125000        1.4133125000        0.0000000000
Ga      839.1960000000        2.8266250000        4.2399375000
As      840.6093125000        4.2399375000        2.8266250000
Ga      842.0226250000        0.0000000000        4.2399375000
As      843.4359375000        1.4133125000        2.8266250000
Ga      842.0226250000        2.8266250000        1.4133125000
As      843.4359375000        4.2399375000        0.0000000000
Ga      844.8492500000        0.0000000000        1.4133125000
As      846.2625625000        1.4133125000        0.0000000000
Ga      844.8492500000        2.8266250000        4.2399375000
As      846.2625625000        4.2399375000        2.8266250000
Ga      847.6758750000        0.0000000000        4.2399375000
As      849.0891875000        1.4133125000        2.8266250000
Ga      847.6758750000        2.8266250000        1.4133125000
As      849.0891875000        4.2399375000        0.0000000000
Ga      850.5025000000        0.0000000000        1.4133125000
As      851.9158125000        1.4133125000        0.0000000000
Ga      850.5025000000        2.8266250000        4.2399375000
As      851.9158125000        4.2399375000        2.8266250000
Ga      853.3291250000        0.0000000000        4.2399375000
As      854.7424375000        1.4133125000        2.8266250000
Ga      853.3291250000        2.8266250000        1.4133125000
As      854.7424375000        4.2399375000        0.0000000000
Ga      856.1557500000        0.0000000000        1.4133125000
As      857.5690625000        1.4133125000        0.0000000000
Ga      856.1557500000        2.8266250000        4.2399375000
As      857.5690625000        4.2399375000        2.8266250000
Ga      858.9823750000        0.0000000000        4.2399375000
As      860.3956875000        1.4133125000        2.8266250000
Ga      858.9823750000        2.8266250000        1.4133125000
As      860.3956875000        4.2399375000        0.0000000000
Ga      861.8090000000        0.0000000000        1.4133125000
As      863.2223125000        1.4133125000        0.0000000000
Ga      861.8090000000        2.8266250000        4.2399375000
As      863.2223125000        4.2399375000        2.8266250000
Ga      864.6356250000        0.0000000000        4.2399375000
As      866.0489375000        1.4133125000        2.8266250000
Ga      864.6356250000        2.8266250000        1.4133125000
As      866.0489375000        4.2399375000        0.0000000000
Ga      867.4622500000        0.0000000000        1.4133125000
As      868.8755625000        1.4133125000        0.0000000000
Ga      867.4622500000        2.8266250000        4.2399375000
As      868.8755625000        4.2399375000        2.8266250000
Ga      870.2888750000        0.0000000000        4.2399375000
As      871.7021875000        1.4133125000        2.8266250000
Ga      870.2888750000        2.8266250000        1.4133125000
As      871.7021875000        4.2399375000        0.0000000000
Ga      873.1155000000        0.0000000000        1.4133125000
As      874.5288125000        1.4133125000        0.0000000000
Ga      873.1155000000        2.8266250000        4.2399375000
As      874.5288125000        4.2399375000        2.8266250000
Ga      875.9421250000        0.0000000000        4.2399375000
As      877.3554375000        1.4133125000        2.8266250000
Ga      875.9421250000        2.8266250000        1.4133125000
As      877.3554375000        4.2399375000        0.0000000000
Ga      878.7687500000        0.0000000000        1.4133125000
As      880.1820625000        1.4133125000        0.0000000000
Ga      878.7687500000        2.8266250000        4.2399375000
As      880.1820625000        4.2399375000        2.8266250000
Ga      881.5953750000        0.0000000000        4.2399375000
As      883.0086875000        1.4133125000        2.8266250000
Ga      881.5953750000        2.8266250000        1.4133125000
As      883.0086875000        4.2399375000        0.0000000000
Ga      884.4220000000        0.0000000000        1.4133125000
As      885.8353125000        1.4133125000        0.0000000000
Ga      884.4220000000        2.8266250000        4.2399375000
As      885.8353125000        4.2399375000        2.8266250000
Ga      887.2486250000        0.0000000000        4.2399375000
As      888.6619375000        1.4133125000        2.8266250000
Ga      887.2486250000        2.8266250000        1.4133125000
As      888.6619375000        4.2399375000        0.0000000000
Ga      890.0752500000        0.0000000000        1.4133125000
As      891.4885625000        1.4133125000        0.0000000000
Ga      890.0752500000        2.8266250000        4.2399375000
As      891.4885625000        4.2399375000        2.8266250000
Ga      892.9018750000        0.0000000000        4.2399375000
As      894.3151875000        1.4133125000        2.8266250000
Ga      892.9018750000        2.8266250000        1.4133125000
As      894.3151875000        4.2399375000        0.0000000000
Ga      895.7285000000        0.0000000000        1.4133125000
As      897.1418125000        1.4133125000        0.0000000000
Ga      895.7285000000        2.8266250000        4.2399375000
As      897.1418125000        4.2399375000        2.8266250000
Ga      898.5551250000        0.0000000000        4.2399375000
As      899.9684375000        1.4133125000        2.8266250000
Ga      898.5551250000        2.8266250000        1.4133125000
As      899.9684375000        4.2399375000        0.0000000000
Ga      901.3817500000        0.0000000000        1.4133125000
As      902.7950625000        1.4133125000        0.0000000000
Ga      901.3817500000        2.8266250000        4.2399375000
As      902.7950625000        4.2399375000        2.8266250000
Ga      904.2083750000        0.0000000000        4.2399375000
As      905.6216875000        1.4133125000        2.8266250000
Ga      904.2083750000        2.8266250000        1.4133125000
As      905.6216875000        4.2399375000        0.0000000000
Ga      907.0350000000        0.0000000000        1.4133125000
As      908.4483125000        1.4133125000        0.0000000000
Ga      907.0350000000        2.8266250000        4.2399375000
As      908.4483125000        4.2399375000        2.8266250000
Ga      909.8616250000        0.0000000000        4.2399375000
As      911.2749375000        1.4133125000        2.8266250000
Ga      909.8616250000        2.8266250000        1.4133125000
As      911.2749375000        4.2399375000        0.0000000000
Ga      912.6882500000        0.0000000000        1.4133125000
As      914.1015625000        1.4133125000        0.0000000000
Ga      912.6882500000        2.8266250000        4.2399375000
As      914.1015625000        4.2399375000        2.8266250000
Ga      915.5148750000        0.0000000000        4.2399375000
As      916.9281875000        1.4133125000        2.8266250000
Ga      915.5148750000        2.8266250000        1.4133125000
As      916.9281875000        4.2399375000        0.0000000000
Ga      918.3415000000        0.0000000000        1.4133125000
As      919.7548125000        1.4133125000        0.0000000000
Ga      918.3415000000        2.8266250000        4.2399375000
As      919.7548125000        4.2399375000        2.8266250000
Ga      921.1681250000        0.0000000000        4.2399375000
As      922.5814375000        1.4133125000        2.8266250000
Ga      921.1681250000        2.8266250000        1.4133125000
As      922.5814375000        4.2399375000        0.0000000000
Ga      923.9947500000        0.0000000000        1.4133125000
As      925.4080625000        1.4133125000        0.0000000000
Ga      923.9947500000        2.8266250000        4.2399375000
As      925.4080625000        4.2399375000        2.8266250000
Ga      926.8213750000        0.0000000000        4.2399375000
As      928.2346875000        1.4133125000        2.8266250000
Ga      926.8213750000        2.8266250000        1.4133125000
As      928.2346875000        4.2399375000        0.0000000000
Ga      929.6480000000        0.0000000000        1.4133125000
As      931.0613125000        1.4133125000        0.0000000000
Ga      929.6480000000        2.8266250000        4.2399375000
As      931.0613125000        4.2399375000        2.8266250000
Ga      932.4746250000        0.0000000000        4.2399375000
As      933.8879375000        1.4133125000        2.8266250000
Ga      932.4746250000        2.8266250000        1.4133125000
As      933.8879375000        4.2399375000        0.0000000000
Ga      935.3012500000        0.0000000000        1.4133125000
As      936.7145625000        1.4133125000        0.0000000000
Ga      935.3012500000        2.8266250000        4.2399375000
As      936.7145625000        4.2399375000        2.8266250000
Ga      938.1278750000        0.0000000000        4.2399375000
As      939.5411875000        1.4133125000        2.8266250000
Ga      938.1278750000        2.8266250000        1.4133125000
As      939.5411875000        4.2399375000        0.0000000000
Ga      940.9545000000        0.0000000000        1.4133125000
As      942.3678125000        1.4133125000        0.0000000000
Ga      940.9545000000        2.8266250000        4.2399375000
As      942.3678125000        4.2399375000        2.8266250000
Ga      943.7811250000        0.0000000000        4.2399375000
As      945.1944375000        1.4133125000        2.8266250000
Ga      943.7811250000        2.8266250000        1.4133125000
As      945.1944375000        4.2399375000        0.0000000000
Ga      946.6077500000        0.0000000000        1.4133125000
As      948.0210625000        1.4133125000        0.0000000000
Ga      946.6077500000        2.8266250000        4.2399375000
As      948.0210625000        4.2399375000        2.8266250000
Ga      949.4343750000        0.0000000000        4.2399375000
Ga      949.4343750000        2.8266250000        1.4133125000
 H      499.3081796770       -0.6928203230        0.7204921770
 H      499.3081796770        0.6928203230        2.1061328230
 H      499.3081796770        2.1338046770        3.5471171770
 H      499.3081796770        3.5194453230        4.9327578230
 H      950.1271953230       -0.6928203230        4.9327578230
 H      950.1271953230        0.6928203230        3.5471171770
 H      950.1271953230        2.1338046770        2.1061328230
 H      950.1271953230        3.5194453230        0.7204921770
