3204

Ga      -39.9989980000        0.9205860836        1.5945004055
Ga      -37.4064980000        1.8411701673        0.0000020000
 N      -38.0452900000        0.9205860836        1.5945004055
 N      -35.4527900000        1.8411701673        0.0000020000
Ga      -39.9989980000        3.6823410963        3.1890004055
Ga      -37.4064980000        4.6029251799        1.5945020000
 N      -38.0452900000        3.6823410963        3.1890004055
 N      -35.4527900000        4.6029251799        1.5945020000
Ga      -39.9989980000        0.9205860836        4.7835004055
Ga      -37.4064980000        1.8411701673        3.1890020000
 N      -38.0452900000        0.9205860836        4.7835004055
 N      -35.4527900000        1.8411701673        3.1890020000
Ga      -39.9989980000        3.6823410963        6.3780004055
Ga      -37.4064980000        4.6029251799        4.7835020000
 N      -38.0452900000        3.6823410963        6.3780004055
 N      -35.4527900000        4.6029251799        4.7835020000
Ga      -39.9989980000        0.9205860836        7.9725004055
Ga      -37.4064980000        1.8411701673        6.3780020000
 N      -38.0452900000        0.9205860836        7.9725004055
 N      -35.4527900000        1.8411701673        6.3780020000
Ga      -39.9989980000        3.6823410963        9.5670004055
Ga      -37.4064980000        4.6029251799        7.9725020000
 N      -38.0452900000        3.6823410963        9.5670004055
 N      -35.4527900000        4.6029251799        7.9725020000
Ga      -39.9989980000        0.9205860836       11.1615004055
Ga      -37.4064980000        1.8411701673        9.5670020000
 N      -38.0452900000        0.9205860836       11.1615004055
 N      -35.4527900000        1.8411701673        9.5670020000
Ga      -39.9989980000        3.6823410963       12.7560004055
Ga      -37.4064980000        4.6029251799       11.1615020000
 N      -38.0452900000        3.6823410963       12.7560004055
 N      -35.4527900000        4.6029251799       11.1615020000
Ga      -39.9989980000        0.9205860836       14.3505004055
Ga      -37.4064980000        1.8411701673       12.7560020000
 N      -38.0452900000        0.9205860836       14.3505004055
 N      -35.4527900000        1.8411701673       12.7560020000
Ga      -39.9989980000        3.6823410963       15.9450004055
Ga      -37.4064980000        4.6029251799       14.3505020000
 N      -38.0452900000        3.6823410963       15.9450004055
 N      -35.4527900000        4.6029251799       14.3505020000
Ga      -39.9989980000        0.9205860836       17.5395004055
Ga      -37.4064980000        1.8411701673       15.9450020000
 N      -38.0452900000        0.9205860836       17.5395004055
 N      -35.4527900000        1.8411701673       15.9450020000
Ga      -39.9989980000        3.6823410963       19.1340004055
Ga      -37.4064980000        4.6029251799       17.5395020000
 N      -38.0452900000        3.6823410963       19.1340004055
 N      -35.4527900000        4.6029251799       17.5395020000
Ga      -39.9989980000        6.4440961090        1.5945004055
Ga      -37.4064980000        7.3646801926        0.0000020000
 N      -38.0452900000        6.4440961090        1.5945004055
 N      -35.4527900000        7.3646801926        0.0000020000
Ga      -39.9989980000        9.2058511216        3.1890004055
Ga      -37.4064980000       10.1264352053        1.5945020000
 N      -38.0452900000        9.2058511216        3.1890004055
 N      -35.4527900000       10.1264352053        1.5945020000
Ga      -39.9989980000        6.4440961090        4.7835004055
Ga      -37.4064980000        7.3646801926        3.1890020000
 N      -38.0452900000        6.4440961090        4.7835004055
 N      -35.4527900000        7.3646801926        3.1890020000
Ga      -39.9989980000        9.2058511216        6.3780004055
Ga      -37.4064980000       10.1264352053        4.7835020000
 N      -38.0452900000        9.2058511216        6.3780004055
 N      -35.4527900000       10.1264352053        4.7835020000
Ga      -39.9989980000        6.4440961090        7.9725004055
Ga      -37.4064980000        7.3646801926        6.3780020000
 N      -38.0452900000        6.4440961090        7.9725004055
 N      -35.4527900000        7.3646801926        6.3780020000
Ga      -39.9989980000        9.2058511216        9.5670004055
Ga      -37.4064980000       10.1264352053        7.9725020000
 N      -38.0452900000        9.2058511216        9.5670004055
 N      -35.4527900000       10.1264352053        7.9725020000
Ga      -39.9989980000        6.4440961090       11.1615004055
Ga      -37.4064980000        7.3646801926        9.5670020000
 N      -38.0452900000        6.4440961090       11.1615004055
 N      -35.4527900000        7.3646801926        9.5670020000
Ga      -39.9989980000        9.2058511216       12.7560004055
Ga      -37.4064980000       10.1264352053       11.1615020000
 N      -38.0452900000        9.2058511216       12.7560004055
 N      -35.4527900000       10.1264352053       11.1615020000
Ga      -39.9989980000        6.4440961090       14.3505004055
Ga      -37.4064980000        7.3646801926       12.7560020000
 N      -38.0452900000        6.4440961090       14.3505004055
 N      -35.4527900000        7.3646801926       12.7560020000
Ga      -39.9989980000        9.2058511216       15.9450004055
Ga      -37.4064980000       10.1264352053       14.3505020000
 N      -38.0452900000        9.2058511216       15.9450004055
 N      -35.4527900000       10.1264352053       14.3505020000
Ga      -39.9989980000        6.4440961090       17.5395004055
Ga      -37.4064980000        7.3646801926       15.9450020000
 N      -38.0452900000        6.4440961090       17.5395004055
 N      -35.4527900000        7.3646801926       15.9450020000
Ga      -39.9989980000        9.2058511216       19.1340004055
Ga      -37.4064980000       10.1264352053       17.5395020000
 N      -38.0452900000        9.2058511216       19.1340004055
 N      -35.4527900000       10.1264352053       17.5395020000
Ga      -39.9989980000       11.9676061343        1.5945004055
Ga      -37.4064980000       12.8881902180        0.0000020000
 N      -38.0452900000       11.9676061343        1.5945004055
 N      -35.4527900000       12.8881902180        0.0000020000
Ga      -39.9989980000       14.7293611470        3.1890004055
Ga      -37.4064980000       15.6499452306        1.5945020000
 N      -38.0452900000       14.7293611470        3.1890004055
 N      -35.4527900000       15.6499452306        1.5945020000
Ga      -39.9989980000       11.9676061343        4.7835004055
Ga      -37.4064980000       12.8881902180        3.1890020000
 N      -38.0452900000       11.9676061343        4.7835004055
 N      -35.4527900000       12.8881902180        3.1890020000
Ga      -39.9989980000       14.7293611470        6.3780004055
Ga      -37.4064980000       15.6499452306        4.7835020000
 N      -38.0452900000       14.7293611470        6.3780004055
 N      -35.4527900000       15.6499452306        4.7835020000
Ga      -39.9989980000       11.9676061343        7.9725004055
Ga      -37.4064980000       12.8881902180        6.3780020000
 N      -38.0452900000       11.9676061343        7.9725004055
 N      -35.4527900000       12.8881902180        6.3780020000
Ga      -39.9989980000       14.7293611470        9.5670004055
Ga      -37.4064980000       15.6499452306        7.9725020000
 N      -38.0452900000       14.7293611470        9.5670004055
 N      -35.4527900000       15.6499452306        7.9725020000
Ga      -39.9989980000       11.9676061343       11.1615004055
Ga      -37.4064980000       12.8881902180        9.5670020000
 N      -38.0452900000       11.9676061343       11.1615004055
 N      -35.4527900000       12.8881902180        9.5670020000
Ga      -39.9989980000       14.7293611470       12.7560004055
Ga      -37.4064980000       15.6499452306       11.1615020000
 N      -38.0452900000       14.7293611470       12.7560004055
 N      -35.4527900000       15.6499452306       11.1615020000
Ga      -39.9989980000       11.9676061343       14.3505004055
Ga      -37.4064980000       12.8881902180       12.7560020000
 N      -38.0452900000       11.9676061343       14.3505004055
 N      -35.4527900000       12.8881902180       12.7560020000
Ga      -39.9989980000       14.7293611470       15.9450004055
Ga      -37.4064980000       15.6499452306       14.3505020000
 N      -38.0452900000       14.7293611470       15.9450004055
 N      -35.4527900000       15.6499452306       14.3505020000
Ga      -39.9989980000       11.9676061343       17.5395004055
Ga      -37.4064980000       12.8881902180       15.9450020000
 N      -38.0452900000       11.9676061343       17.5395004055
 N      -35.4527900000       12.8881902180       15.9450020000
Ga      -39.9989980000       14.7293611470       19.1340004055
Ga      -37.4064980000       15.6499452306       17.5395020000
 N      -38.0452900000       14.7293611470       19.1340004055
 N      -35.4527900000       15.6499452306       17.5395020000
Ga      -34.8139980000        0.9205860836        1.5945004055
Ga      -32.2214980000        1.8411701673        0.0000020000
 N      -32.8602900000        0.9205860836        1.5945004055
 N      -30.2677900000        1.8411701673        0.0000020000
Ga      -34.8139980000        3.6823410963        3.1890004055
Ga      -32.2214980000        4.6029251799        1.5945020000
 N      -32.8602900000        3.6823410963        3.1890004055
 N      -30.2677900000        4.6029251799        1.5945020000
Ga      -34.8139980000        0.9205860836        4.7835004055
Ga      -32.2214980000        1.8411701673        3.1890020000
 N      -32.8602900000        0.9205860836        4.7835004055
 N      -30.2677900000        1.8411701673        3.1890020000
Ga      -34.8139980000        3.6823410963        6.3780004055
Ga      -32.2214980000        4.6029251799        4.7835020000
 N      -32.8602900000        3.6823410963        6.3780004055
 N      -30.2677900000        4.6029251799        4.7835020000
Ga      -34.8139980000        0.9205860836        7.9725004055
Ga      -32.2214980000        1.8411701673        6.3780020000
 N      -32.8602900000        0.9205860836        7.9725004055
 N      -30.2677900000        1.8411701673        6.3780020000
Ga      -34.8139980000        3.6823410963        9.5670004055
Ga      -32.2214980000        4.6029251799        7.9725020000
 N      -32.8602900000        3.6823410963        9.5670004055
 N      -30.2677900000        4.6029251799        7.9725020000
Ga      -34.8139980000        0.9205860836       11.1615004055
Ga      -32.2214980000        1.8411701673        9.5670020000
 N      -32.8602900000        0.9205860836       11.1615004055
 N      -30.2677900000        1.8411701673        9.5670020000
Ga      -34.8139980000        3.6823410963       12.7560004055
Ga      -32.2214980000        4.6029251799       11.1615020000
 N      -32.8602900000        3.6823410963       12.7560004055
 N      -30.2677900000        4.6029251799       11.1615020000
Ga      -34.8139980000        0.9205860836       14.3505004055
Ga      -32.2214980000        1.8411701673       12.7560020000
 N      -32.8602900000        0.9205860836       14.3505004055
 N      -30.2677900000        1.8411701673       12.7560020000
Ga      -34.8139980000        3.6823410963       15.9450004055
Ga      -32.2214980000        4.6029251799       14.3505020000
 N      -32.8602900000        3.6823410963       15.9450004055
 N      -30.2677900000        4.6029251799       14.3505020000
Ga      -34.8139980000        0.9205860836       17.5395004055
Ga      -32.2214980000        1.8411701673       15.9450020000
 N      -32.8602900000        0.9205860836       17.5395004055
 N      -30.2677900000        1.8411701673       15.9450020000
Ga      -34.8139980000        3.6823410963       19.1340004055
Ga      -32.2214980000        4.6029251799       17.5395020000
 N      -32.8602900000        3.6823410963       19.1340004055
 N      -30.2677900000        4.6029251799       17.5395020000
Ga      -34.8139980000        6.4440961090        1.5945004055
Ga      -32.2214980000        7.3646801926        0.0000020000
 N      -32.8602900000        6.4440961090        1.5945004055
 N      -30.2677900000        7.3646801926        0.0000020000
Ga      -34.8139980000        9.2058511216        3.1890004055
Ga      -32.2214980000       10.1264352053        1.5945020000
 N      -32.8602900000        9.2058511216        3.1890004055
 N      -30.2677900000       10.1264352053        1.5945020000
Ga      -34.8139980000        6.4440961090        4.7835004055
Ga      -32.2214980000        7.3646801926        3.1890020000
 N      -32.8602900000        6.4440961090        4.7835004055
 N      -30.2677900000        7.3646801926        3.1890020000
Ga      -34.8139980000        9.2058511216        6.3780004055
Ga      -32.2214980000       10.1264352053        4.7835020000
 N      -32.8602900000        9.2058511216        6.3780004055
 N      -30.2677900000       10.1264352053        4.7835020000
Ga      -34.8139980000        6.4440961090        7.9725004055
Ga      -32.2214980000        7.3646801926        6.3780020000
 N      -32.8602900000        6.4440961090        7.9725004055
 N      -30.2677900000        7.3646801926        6.3780020000
Ga      -34.8139980000        9.2058511216        9.5670004055
Ga      -32.2214980000       10.1264352053        7.9725020000
 N      -32.8602900000        9.2058511216        9.5670004055
 N      -30.2677900000       10.1264352053        7.9725020000
Ga      -34.8139980000        6.4440961090       11.1615004055
Ga      -32.2214980000        7.3646801926        9.5670020000
 N      -32.8602900000        6.4440961090       11.1615004055
 N      -30.2677900000        7.3646801926        9.5670020000
Ga      -34.8139980000        9.2058511216       12.7560004055
Ga      -32.2214980000       10.1264352053       11.1615020000
 N      -32.8602900000        9.2058511216       12.7560004055
 N      -30.2677900000       10.1264352053       11.1615020000
Ga      -34.8139980000        6.4440961090       14.3505004055
Ga      -32.2214980000        7.3646801926       12.7560020000
 N      -32.8602900000        6.4440961090       14.3505004055
 N      -30.2677900000        7.3646801926       12.7560020000
Ga      -34.8139980000        9.2058511216       15.9450004055
Ga      -32.2214980000       10.1264352053       14.3505020000
 N      -32.8602900000        9.2058511216       15.9450004055
 N      -30.2677900000       10.1264352053       14.3505020000
Ga      -34.8139980000        6.4440961090       17.5395004055
Ga      -32.2214980000        7.3646801926       15.9450020000
 N      -32.8602900000        6.4440961090       17.5395004055
 N      -30.2677900000        7.3646801926       15.9450020000
Ga      -34.8139980000        9.2058511216       19.1340004055
Ga      -32.2214980000       10.1264352053       17.5395020000
 N      -32.8602900000        9.2058511216       19.1340004055
 N      -30.2677900000       10.1264352053       17.5395020000
Ga      -34.8139980000       11.9676061343        1.5945004055
Ga      -32.2214980000       12.8881902180        0.0000020000
 N      -32.8602900000       11.9676061343        1.5945004055
 N      -30.2677900000       12.8881902180        0.0000020000
Ga      -34.8139980000       14.7293611470        3.1890004055
Ga      -32.2214980000       15.6499452306        1.5945020000
 N      -32.8602900000       14.7293611470        3.1890004055
 N      -30.2677900000       15.6499452306        1.5945020000
Ga      -34.8139980000       11.9676061343        4.7835004055
Ga      -32.2214980000       12.8881902180        3.1890020000
 N      -32.8602900000       11.9676061343        4.7835004055
 N      -30.2677900000       12.8881902180        3.1890020000
Ga      -34.8139980000       14.7293611470        6.3780004055
Ga      -32.2214980000       15.6499452306        4.7835020000
 N      -32.8602900000       14.7293611470        6.3780004055
 N      -30.2677900000       15.6499452306        4.7835020000
Ga      -34.8139980000       11.9676061343        7.9725004055
Ga      -32.2214980000       12.8881902180        6.3780020000
 N      -32.8602900000       11.9676061343        7.9725004055
 N      -30.2677900000       12.8881902180        6.3780020000
Ga      -34.8139980000       14.7293611470        9.5670004055
Ga      -32.2214980000       15.6499452306        7.9725020000
 N      -32.8602900000       14.7293611470        9.5670004055
 N      -30.2677900000       15.6499452306        7.9725020000
Ga      -34.8139980000       11.9676061343       11.1615004055
Ga      -32.2214980000       12.8881902180        9.5670020000
 N      -32.8602900000       11.9676061343       11.1615004055
 N      -30.2677900000       12.8881902180        9.5670020000
Ga      -34.8139980000       14.7293611470       12.7560004055
Ga      -32.2214980000       15.6499452306       11.1615020000
 N      -32.8602900000       14.7293611470       12.7560004055
 N      -30.2677900000       15.6499452306       11.1615020000
Ga      -34.8139980000       11.9676061343       14.3505004055
Ga      -32.2214980000       12.8881902180       12.7560020000
 N      -32.8602900000       11.9676061343       14.3505004055
 N      -30.2677900000       12.8881902180       12.7560020000
Ga      -34.8139980000       14.7293611470       15.9450004055
Ga      -32.2214980000       15.6499452306       14.3505020000
 N      -32.8602900000       14.7293611470       15.9450004055
 N      -30.2677900000       15.6499452306       14.3505020000
Ga      -34.8139980000       11.9676061343       17.5395004055
Ga      -32.2214980000       12.8881902180       15.9450020000
 N      -32.8602900000       11.9676061343       17.5395004055
 N      -30.2677900000       12.8881902180       15.9450020000
Ga      -34.8139980000       14.7293611470       19.1340004055
Ga      -32.2214980000       15.6499452306       17.5395020000
 N      -32.8602900000       14.7293611470       19.1340004055
 N      -30.2677900000       15.6499452306       17.5395020000
Ga      -29.6289980000        0.9205860836        1.5945004055
Ga      -27.0364980000        1.8411701673        0.0000020000
 N      -27.6752900000        0.9205860836        1.5945004055
 N      -25.0827900000        1.8411701673        0.0000020000
Ga      -29.6289980000        3.6823410963        3.1890004055
Ga      -27.0364980000        4.6029251799        1.5945020000
 N      -27.6752900000        3.6823410963        3.1890004055
 N      -25.0827900000        4.6029251799        1.5945020000
Ga      -29.6289980000        0.9205860836        4.7835004055
Ga      -27.0364980000        1.8411701673        3.1890020000
 N      -27.6752900000        0.9205860836        4.7835004055
 N      -25.0827900000        1.8411701673        3.1890020000
Ga      -29.6289980000        3.6823410963        6.3780004055
Ga      -27.0364980000        4.6029251799        4.7835020000
 N      -27.6752900000        3.6823410963        6.3780004055
 N      -25.0827900000        4.6029251799        4.7835020000
Ga      -29.6289980000        0.9205860836        7.9725004055
Ga      -27.0364980000        1.8411701673        6.3780020000
 N      -27.6752900000        0.9205860836        7.9725004055
 N      -25.0827900000        1.8411701673        6.3780020000
Ga      -29.6289980000        3.6823410963        9.5670004055
Ga      -27.0364980000        4.6029251799        7.9725020000
 N      -27.6752900000        3.6823410963        9.5670004055
 N      -25.0827900000        4.6029251799        7.9725020000
Ga      -29.6289980000        0.9205860836       11.1615004055
Ga      -27.0364980000        1.8411701673        9.5670020000
 N      -27.6752900000        0.9205860836       11.1615004055
 N      -25.0827900000        1.8411701673        9.5670020000
Ga      -29.6289980000        3.6823410963       12.7560004055
Ga      -27.0364980000        4.6029251799       11.1615020000
 N      -27.6752900000        3.6823410963       12.7560004055
 N      -25.0827900000        4.6029251799       11.1615020000
Ga      -29.6289980000        0.9205860836       14.3505004055
Ga      -27.0364980000        1.8411701673       12.7560020000
 N      -27.6752900000        0.9205860836       14.3505004055
 N      -25.0827900000        1.8411701673       12.7560020000
Ga      -29.6289980000        3.6823410963       15.9450004055
Ga      -27.0364980000        4.6029251799       14.3505020000
 N      -27.6752900000        3.6823410963       15.9450004055
 N      -25.0827900000        4.6029251799       14.3505020000
Ga      -29.6289980000        0.9205860836       17.5395004055
Ga      -27.0364980000        1.8411701673       15.9450020000
 N      -27.6752900000        0.9205860836       17.5395004055
 N      -25.0827900000        1.8411701673       15.9450020000
Ga      -29.6289980000        3.6823410963       19.1340004055
Ga      -27.0364980000        4.6029251799       17.5395020000
 N      -27.6752900000        3.6823410963       19.1340004055
 N      -25.0827900000        4.6029251799       17.5395020000
Ga      -29.6289980000        6.4440961090        1.5945004055
Ga      -27.0364980000        7.3646801926        0.0000020000
 N      -27.6752900000        6.4440961090        1.5945004055
 N      -25.0827900000        7.3646801926        0.0000020000
Ga      -29.6289980000        9.2058511216        3.1890004055
Ga      -27.0364980000       10.1264352053        1.5945020000
 N      -27.6752900000        9.2058511216        3.1890004055
 N      -25.0827900000       10.1264352053        1.5945020000
Ga      -29.6289980000        6.4440961090        4.7835004055
Ga      -27.0364980000        7.3646801926        3.1890020000
 N      -27.6752900000        6.4440961090        4.7835004055
 N      -25.0827900000        7.3646801926        3.1890020000
Ga      -29.6289980000        9.2058511216        6.3780004055
Ga      -27.0364980000       10.1264352053        4.7835020000
 N      -27.6752900000        9.2058511216        6.3780004055
 N      -25.0827900000       10.1264352053        4.7835020000
Ga      -29.6289980000        6.4440961090        7.9725004055
Ga      -27.0364980000        7.3646801926        6.3780020000
 N      -27.6752900000        6.4440961090        7.9725004055
 N      -25.0827900000        7.3646801926        6.3780020000
Ga      -29.6289980000        9.2058511216        9.5670004055
Ga      -27.0364980000       10.1264352053        7.9725020000
 N      -27.6752900000        9.2058511216        9.5670004055
 N      -25.0827900000       10.1264352053        7.9725020000
Ga      -29.6289980000        6.4440961090       11.1615004055
Ga      -27.0364980000        7.3646801926        9.5670020000
 N      -27.6752900000        6.4440961090       11.1615004055
 N      -25.0827900000        7.3646801926        9.5670020000
Ga      -29.6289980000        9.2058511216       12.7560004055
Ga      -27.0364980000       10.1264352053       11.1615020000
 N      -27.6752900000        9.2058511216       12.7560004055
 N      -25.0827900000       10.1264352053       11.1615020000
Ga      -29.6289980000        6.4440961090       14.3505004055
Ga      -27.0364980000        7.3646801926       12.7560020000
 N      -27.6752900000        6.4440961090       14.3505004055
 N      -25.0827900000        7.3646801926       12.7560020000
Ga      -29.6289980000        9.2058511216       15.9450004055
Ga      -27.0364980000       10.1264352053       14.3505020000
 N      -27.6752900000        9.2058511216       15.9450004055
 N      -25.0827900000       10.1264352053       14.3505020000
Ga      -29.6289980000        6.4440961090       17.5395004055
Ga      -27.0364980000        7.3646801926       15.9450020000
 N      -27.6752900000        6.4440961090       17.5395004055
 N      -25.0827900000        7.3646801926       15.9450020000
Ga      -29.6289980000        9.2058511216       19.1340004055
Ga      -27.0364980000       10.1264352053       17.5395020000
 N      -27.6752900000        9.2058511216       19.1340004055
 N      -25.0827900000       10.1264352053       17.5395020000
Ga      -29.6289980000       11.9676061343        1.5945004055
Ga      -27.0364980000       12.8881902180        0.0000020000
 N      -27.6752900000       11.9676061343        1.5945004055
 N      -25.0827900000       12.8881902180        0.0000020000
Ga      -29.6289980000       14.7293611470        3.1890004055
Ga      -27.0364980000       15.6499452306        1.5945020000
 N      -27.6752900000       14.7293611470        3.1890004055
 N      -25.0827900000       15.6499452306        1.5945020000
Ga      -29.6289980000       11.9676061343        4.7835004055
Ga      -27.0364980000       12.8881902180        3.1890020000
 N      -27.6752900000       11.9676061343        4.7835004055
 N      -25.0827900000       12.8881902180        3.1890020000
Ga      -29.6289980000       14.7293611470        6.3780004055
Ga      -27.0364980000       15.6499452306        4.7835020000
 N      -27.6752900000       14.7293611470        6.3780004055
 N      -25.0827900000       15.6499452306        4.7835020000
Ga      -29.6289980000       11.9676061343        7.9725004055
Ga      -27.0364980000       12.8881902180        6.3780020000
 N      -27.6752900000       11.9676061343        7.9725004055
 N      -25.0827900000       12.8881902180        6.3780020000
Ga      -29.6289980000       14.7293611470        9.5670004055
Ga      -27.0364980000       15.6499452306        7.9725020000
 N      -27.6752900000       14.7293611470        9.5670004055
 N      -25.0827900000       15.6499452306        7.9725020000
Ga      -29.6289980000       11.9676061343       11.1615004055
Ga      -27.0364980000       12.8881902180        9.5670020000
 N      -27.6752900000       11.9676061343       11.1615004055
 N      -25.0827900000       12.8881902180        9.5670020000
Ga      -29.6289980000       14.7293611470       12.7560004055
Ga      -27.0364980000       15.6499452306       11.1615020000
 N      -27.6752900000       14.7293611470       12.7560004055
 N      -25.0827900000       15.6499452306       11.1615020000
Ga      -29.6289980000       11.9676061343       14.3505004055
Ga      -27.0364980000       12.8881902180       12.7560020000
 N      -27.6752900000       11.9676061343       14.3505004055
 N      -25.0827900000       12.8881902180       12.7560020000
Ga      -29.6289980000       14.7293611470       15.9450004055
Ga      -27.0364980000       15.6499452306       14.3505020000
 N      -27.6752900000       14.7293611470       15.9450004055
 N      -25.0827900000       15.6499452306       14.3505020000
Ga      -29.6289980000       11.9676061343       17.5395004055
Ga      -27.0364980000       12.8881902180       15.9450020000
 N      -27.6752900000       11.9676061343       17.5395004055
 N      -25.0827900000       12.8881902180       15.9450020000
Ga      -29.6289980000       14.7293611470       19.1340004055
Ga      -27.0364980000       15.6499452306       17.5395020000
 N      -27.6752900000       14.7293611470       19.1340004055
 N      -25.0827900000       15.6499452306       17.5395020000
Ga      -24.4439980000        0.9205860836        1.5945004055
Ga      -21.8514980000        1.8411701673        0.0000020000
 N      -22.4902900000        0.9205860836        1.5945004055
 N      -19.8977900000        1.8411701673        0.0000020000
Ga      -24.4439980000        3.6823410963        3.1890004055
Ga      -21.8514980000        4.6029251799        1.5945020000
 N      -22.4902900000        3.6823410963        3.1890004055
 N      -19.8977900000        4.6029251799        1.5945020000
Ga      -24.4439980000        0.9205860836        4.7835004055
Ga      -21.8514980000        1.8411701673        3.1890020000
 N      -22.4902900000        0.9205860836        4.7835004055
 N      -19.8977900000        1.8411701673        3.1890020000
Ga      -24.4439980000        3.6823410963        6.3780004055
Ga      -21.8514980000        4.6029251799        4.7835020000
 N      -22.4902900000        3.6823410963        6.3780004055
 N      -19.8977900000        4.6029251799        4.7835020000
Ga      -24.4439980000        0.9205860836        7.9725004055
Ga      -21.8514980000        1.8411701673        6.3780020000
 N      -22.4902900000        0.9205860836        7.9725004055
 N      -19.8977900000        1.8411701673        6.3780020000
Ga      -24.4439980000        3.6823410963        9.5670004055
Ga      -21.8514980000        4.6029251799        7.9725020000
 N      -22.4902900000        3.6823410963        9.5670004055
 N      -19.8977900000        4.6029251799        7.9725020000
Ga      -24.4439980000        0.9205860836       11.1615004055
Ga      -21.8514980000        1.8411701673        9.5670020000
 N      -22.4902900000        0.9205860836       11.1615004055
 N      -19.8977900000        1.8411701673        9.5670020000
Ga      -24.4439980000        3.6823410963       12.7560004055
Ga      -21.8514980000        4.6029251799       11.1615020000
 N      -22.4902900000        3.6823410963       12.7560004055
 N      -19.8977900000        4.6029251799       11.1615020000
Ga      -24.4439980000        0.9205860836       14.3505004055
Ga      -21.8514980000        1.8411701673       12.7560020000
 N      -22.4902900000        0.9205860836       14.3505004055
 N      -19.8977900000        1.8411701673       12.7560020000
Ga      -24.4439980000        3.6823410963       15.9450004055
Ga      -21.8514980000        4.6029251799       14.3505020000
 N      -22.4902900000        3.6823410963       15.9450004055
 N      -19.8977900000        4.6029251799       14.3505020000
Ga      -24.4439980000        0.9205860836       17.5395004055
Ga      -21.8514980000        1.8411701673       15.9450020000
 N      -22.4902900000        0.9205860836       17.5395004055
 N      -19.8977900000        1.8411701673       15.9450020000
Ga      -24.4439980000        3.6823410963       19.1340004055
Ga      -21.8514980000        4.6029251799       17.5395020000
 N      -22.4902900000        3.6823410963       19.1340004055
 N      -19.8977900000        4.6029251799       17.5395020000
Ga      -24.4439980000        6.4440961090        1.5945004055
Ga      -21.8514980000        7.3646801926        0.0000020000
 N      -22.4902900000        6.4440961090        1.5945004055
 N      -19.8977900000        7.3646801926        0.0000020000
Ga      -24.4439980000        9.2058511216        3.1890004055
Ga      -21.8514980000       10.1264352053        1.5945020000
 N      -22.4902900000        9.2058511216        3.1890004055
 N      -19.8977900000       10.1264352053        1.5945020000
Ga      -24.4439980000        6.4440961090        4.7835004055
Ga      -21.8514980000        7.3646801926        3.1890020000
 N      -22.4902900000        6.4440961090        4.7835004055
 N      -19.8977900000        7.3646801926        3.1890020000
Ga      -24.4439980000        9.2058511216        6.3780004055
Ga      -21.8514980000       10.1264352053        4.7835020000
 N      -22.4902900000        9.2058511216        6.3780004055
 N      -19.8977900000       10.1264352053        4.7835020000
Ga      -24.4439980000        6.4440961090        7.9725004055
Ga      -21.8514980000        7.3646801926        6.3780020000
 N      -22.4902900000        6.4440961090        7.9725004055
 N      -19.8977900000        7.3646801926        6.3780020000
Ga      -24.4439980000        9.2058511216        9.5670004055
Ga      -21.8514980000       10.1264352053        7.9725020000
 N      -22.4902900000        9.2058511216        9.5670004055
 N      -19.8977900000       10.1264352053        7.9725020000
Ga      -24.4439980000        6.4440961090       11.1615004055
Ga      -21.8514980000        7.3646801926        9.5670020000
 N      -22.4902900000        6.4440961090       11.1615004055
 N      -19.8977900000        7.3646801926        9.5670020000
Ga      -24.4439980000        9.2058511216       12.7560004055
Ga      -21.8514980000       10.1264352053       11.1615020000
 N      -22.4902900000        9.2058511216       12.7560004055
 N      -19.8977900000       10.1264352053       11.1615020000
Ga      -24.4439980000        6.4440961090       14.3505004055
Ga      -21.8514980000        7.3646801926       12.7560020000
 N      -22.4902900000        6.4440961090       14.3505004055
 N      -19.8977900000        7.3646801926       12.7560020000
Ga      -24.4439980000        9.2058511216       15.9450004055
Ga      -21.8514980000       10.1264352053       14.3505020000
 N      -22.4902900000        9.2058511216       15.9450004055
 N      -19.8977900000       10.1264352053       14.3505020000
Ga      -24.4439980000        6.4440961090       17.5395004055
Ga      -21.8514980000        7.3646801926       15.9450020000
 N      -22.4902900000        6.4440961090       17.5395004055
 N      -19.8977900000        7.3646801926       15.9450020000
Ga      -24.4439980000        9.2058511216       19.1340004055
Ga      -21.8514980000       10.1264352053       17.5395020000
 N      -22.4902900000        9.2058511216       19.1340004055
 N      -19.8977900000       10.1264352053       17.5395020000
Ga      -24.4439980000       11.9676061343        1.5945004055
Ga      -21.8514980000       12.8881902180        0.0000020000
 N      -22.4902900000       11.9676061343        1.5945004055
 N      -19.8977900000       12.8881902180        0.0000020000
Ga      -24.4439980000       14.7293611470        3.1890004055
Ga      -21.8514980000       15.6499452306        1.5945020000
 N      -22.4902900000       14.7293611470        3.1890004055
 N      -19.8977900000       15.6499452306        1.5945020000
Ga      -24.4439980000       11.9676061343        4.7835004055
Ga      -21.8514980000       12.8881902180        3.1890020000
 N      -22.4902900000       11.9676061343        4.7835004055
 N      -19.8977900000       12.8881902180        3.1890020000
Ga      -24.4439980000       14.7293611470        6.3780004055
Ga      -21.8514980000       15.6499452306        4.7835020000
 N      -22.4902900000       14.7293611470        6.3780004055
 N      -19.8977900000       15.6499452306        4.7835020000
Ga      -24.4439980000       11.9676061343        7.9725004055
Ga      -21.8514980000       12.8881902180        6.3780020000
 N      -22.4902900000       11.9676061343        7.9725004055
 N      -19.8977900000       12.8881902180        6.3780020000
Ga      -24.4439980000       14.7293611470        9.5670004055
Ga      -21.8514980000       15.6499452306        7.9725020000
 N      -22.4902900000       14.7293611470        9.5670004055
 N      -19.8977900000       15.6499452306        7.9725020000
Ga      -24.4439980000       11.9676061343       11.1615004055
Ga      -21.8514980000       12.8881902180        9.5670020000
 N      -22.4902900000       11.9676061343       11.1615004055
 N      -19.8977900000       12.8881902180        9.5670020000
Ga      -24.4439980000       14.7293611470       12.7560004055
Ga      -21.8514980000       15.6499452306       11.1615020000
 N      -22.4902900000       14.7293611470       12.7560004055
 N      -19.8977900000       15.6499452306       11.1615020000
Ga      -24.4439980000       11.9676061343       14.3505004055
Ga      -21.8514980000       12.8881902180       12.7560020000
 N      -22.4902900000       11.9676061343       14.3505004055
 N      -19.8977900000       12.8881902180       12.7560020000
Ga      -24.4439980000       14.7293611470       15.9450004055
Ga      -21.8514980000       15.6499452306       14.3505020000
 N      -22.4902900000       14.7293611470       15.9450004055
 N      -19.8977900000       15.6499452306       14.3505020000
Ga      -24.4439980000       11.9676061343       17.5395004055
Ga      -21.8514980000       12.8881902180       15.9450020000
 N      -22.4902900000       11.9676061343       17.5395004055
 N      -19.8977900000       12.8881902180       15.9450020000
Ga      -24.4439980000       14.7293611470       19.1340004055
Ga      -21.8514980000       15.6499452306       17.5395020000
 N      -22.4902900000       14.7293611470       19.1340004055
 N      -19.8977900000       15.6499452306       17.5395020000
Ga      -19.2589980000        0.9205860836        1.5945004055
Ga      -16.6664980000        1.8411701673        0.0000020000
 N      -17.3052900000        0.9205860836        1.5945004055
 N      -14.7127900000        1.8411701673        0.0000020000
Ga      -19.2589980000        3.6823410963        3.1890004055
Ga      -16.6664980000        4.6029251799        1.5945020000
 N      -17.3052900000        3.6823410963        3.1890004055
 N      -14.7127900000        4.6029251799        1.5945020000
Ga      -19.2589980000        0.9205860836        4.7835004055
Ga      -16.6664980000        1.8411701673        3.1890020000
 N      -17.3052900000        0.9205860836        4.7835004055
 N      -14.7127900000        1.8411701673        3.1890020000
Ga      -19.2589980000        3.6823410963        6.3780004055
Ga      -16.6664980000        4.6029251799        4.7835020000
 N      -17.3052900000        3.6823410963        6.3780004055
 N      -14.7127900000        4.6029251799        4.7835020000
Ga      -19.2589980000        0.9205860836        7.9725004055
Ga      -16.6664980000        1.8411701673        6.3780020000
 N      -17.3052900000        0.9205860836        7.9725004055
 N      -14.7127900000        1.8411701673        6.3780020000
Ga      -19.2589980000        3.6823410963        9.5670004055
Ga      -16.6664980000        4.6029251799        7.9725020000
 N      -17.3052900000        3.6823410963        9.5670004055
 N      -14.7127900000        4.6029251799        7.9725020000
Ga      -19.2589980000        0.9205860836       11.1615004055
Ga      -16.6664980000        1.8411701673        9.5670020000
 N      -17.3052900000        0.9205860836       11.1615004055
 N      -14.7127900000        1.8411701673        9.5670020000
Ga      -19.2589980000        3.6823410963       12.7560004055
Ga      -16.6664980000        4.6029251799       11.1615020000
 N      -17.3052900000        3.6823410963       12.7560004055
 N      -14.7127900000        4.6029251799       11.1615020000
Ga      -19.2589980000        0.9205860836       14.3505004055
Ga      -16.6664980000        1.8411701673       12.7560020000
 N      -17.3052900000        0.9205860836       14.3505004055
 N      -14.7127900000        1.8411701673       12.7560020000
Ga      -19.2589980000        3.6823410963       15.9450004055
Ga      -16.6664980000        4.6029251799       14.3505020000
 N      -17.3052900000        3.6823410963       15.9450004055
 N      -14.7127900000        4.6029251799       14.3505020000
Ga      -19.2589980000        0.9205860836       17.5395004055
Ga      -16.6664980000        1.8411701673       15.9450020000
 N      -17.3052900000        0.9205860836       17.5395004055
 N      -14.7127900000        1.8411701673       15.9450020000
Ga      -19.2589980000        3.6823410963       19.1340004055
Ga      -16.6664980000        4.6029251799       17.5395020000
 N      -17.3052900000        3.6823410963       19.1340004055
 N      -14.7127900000        4.6029251799       17.5395020000
Ga      -19.2589980000        6.4440961090        1.5945004055
Ga      -16.6664980000        7.3646801926        0.0000020000
 N      -17.3052900000        6.4440961090        1.5945004055
 N      -14.7127900000        7.3646801926        0.0000020000
Ga      -19.2589980000        9.2058511216        3.1890004055
Ga      -16.6664980000       10.1264352053        1.5945020000
 N      -17.3052900000        9.2058511216        3.1890004055
 N      -14.7127900000       10.1264352053        1.5945020000
Ga      -19.2589980000        6.4440961090        4.7835004055
Ga      -16.6664980000        7.3646801926        3.1890020000
 N      -17.3052900000        6.4440961090        4.7835004055
 N      -14.7127900000        7.3646801926        3.1890020000
Ga      -19.2589980000        9.2058511216        6.3780004055
Ga      -16.6664980000       10.1264352053        4.7835020000
 N      -17.3052900000        9.2058511216        6.3780004055
 N      -14.7127900000       10.1264352053        4.7835020000
Ga      -19.2589980000        6.4440961090        7.9725004055
Ga      -16.6664980000        7.3646801926        6.3780020000
 N      -17.3052900000        6.4440961090        7.9725004055
 N      -14.7127900000        7.3646801926        6.3780020000
Ga      -19.2589980000        9.2058511216        9.5670004055
Ga      -16.6664980000       10.1264352053        7.9725020000
 N      -17.3052900000        9.2058511216        9.5670004055
 N      -14.7127900000       10.1264352053        7.9725020000
Ga      -19.2589980000        6.4440961090       11.1615004055
Ga      -16.6664980000        7.3646801926        9.5670020000
 N      -17.3052900000        6.4440961090       11.1615004055
 N      -14.7127900000        7.3646801926        9.5670020000
Ga      -19.2589980000        9.2058511216       12.7560004055
Ga      -16.6664980000       10.1264352053       11.1615020000
 N      -17.3052900000        9.2058511216       12.7560004055
 N      -14.7127900000       10.1264352053       11.1615020000
Ga      -19.2589980000        6.4440961090       14.3505004055
Ga      -16.6664980000        7.3646801926       12.7560020000
 N      -17.3052900000        6.4440961090       14.3505004055
 N      -14.7127900000        7.3646801926       12.7560020000
Ga      -19.2589980000        9.2058511216       15.9450004055
Ga      -16.6664980000       10.1264352053       14.3505020000
 N      -17.3052900000        9.2058511216       15.9450004055
 N      -14.7127900000       10.1264352053       14.3505020000
Ga      -19.2589980000        6.4440961090       17.5395004055
Ga      -16.6664980000        7.3646801926       15.9450020000
 N      -17.3052900000        6.4440961090       17.5395004055
 N      -14.7127900000        7.3646801926       15.9450020000
Ga      -19.2589980000        9.2058511216       19.1340004055
Ga      -16.6664980000       10.1264352053       17.5395020000
 N      -17.3052900000        9.2058511216       19.1340004055
 N      -14.7127900000       10.1264352053       17.5395020000
Ga      -19.2589980000       11.9676061343        1.5945004055
Ga      -16.6664980000       12.8881902180        0.0000020000
 N      -17.3052900000       11.9676061343        1.5945004055
 N      -14.7127900000       12.8881902180        0.0000020000
Ga      -19.2589980000       14.7293611470        3.1890004055
Ga      -16.6664980000       15.6499452306        1.5945020000
 N      -17.3052900000       14.7293611470        3.1890004055
 N      -14.7127900000       15.6499452306        1.5945020000
Ga      -19.2589980000       11.9676061343        4.7835004055
Ga      -16.6664980000       12.8881902180        3.1890020000
 N      -17.3052900000       11.9676061343        4.7835004055
 N      -14.7127900000       12.8881902180        3.1890020000
Ga      -19.2589980000       14.7293611470        6.3780004055
Ga      -16.6664980000       15.6499452306        4.7835020000
 N      -17.3052900000       14.7293611470        6.3780004055
 N      -14.7127900000       15.6499452306        4.7835020000
Ga      -19.2589980000       11.9676061343        7.9725004055
Ga      -16.6664980000       12.8881902180        6.3780020000
 N      -17.3052900000       11.9676061343        7.9725004055
 N      -14.7127900000       12.8881902180        6.3780020000
Ga      -19.2589980000       14.7293611470        9.5670004055
Ga      -16.6664980000       15.6499452306        7.9725020000
 N      -17.3052900000       14.7293611470        9.5670004055
 N      -14.7127900000       15.6499452306        7.9725020000
Ga      -19.2589980000       11.9676061343       11.1615004055
Ga      -16.6664980000       12.8881902180        9.5670020000
 N      -17.3052900000       11.9676061343       11.1615004055
 N      -14.7127900000       12.8881902180        9.5670020000
Ga      -19.2589980000       14.7293611470       12.7560004055
Ga      -16.6664980000       15.6499452306       11.1615020000
 N      -17.3052900000       14.7293611470       12.7560004055
 N      -14.7127900000       15.6499452306       11.1615020000
Ga      -19.2589980000       11.9676061343       14.3505004055
Ga      -16.6664980000       12.8881902180       12.7560020000
 N      -17.3052900000       11.9676061343       14.3505004055
 N      -14.7127900000       12.8881902180       12.7560020000
Ga      -19.2589980000       14.7293611470       15.9450004055
Ga      -16.6664980000       15.6499452306       14.3505020000
 N      -17.3052900000       14.7293611470       15.9450004055
 N      -14.7127900000       15.6499452306       14.3505020000
Ga      -19.2589980000       11.9676061343       17.5395004055
Ga      -16.6664980000       12.8881902180       15.9450020000
 N      -17.3052900000       11.9676061343       17.5395004055
 N      -14.7127900000       12.8881902180       15.9450020000
Ga      -19.2589980000       14.7293611470       19.1340004055
Ga      -16.6664980000       15.6499452306       17.5395020000
 N      -17.3052900000       14.7293611470       19.1340004055
 N      -14.7127900000       15.6499452306       17.5395020000
Ga      -14.0739980000        0.9205860836        1.5945004055
Ga      -11.4814980000        1.8411701673        0.0000020000
 N      -12.1202900000        0.9205860836        1.5945004055
 N       -9.5277900000        1.8411701673        0.0000020000
Ga      -14.0739980000        3.6823410963        3.1890004055
Ga      -11.4814980000        4.6029251799        1.5945020000
 N      -12.1202900000        3.6823410963        3.1890004055
 N       -9.5277900000        4.6029251799        1.5945020000
Ga      -14.0739980000        0.9205860836        4.7835004055
Ga      -11.4814980000        1.8411701673        3.1890020000
 N      -12.1202900000        0.9205860836        4.7835004055
 N       -9.5277900000        1.8411701673        3.1890020000
Ga      -14.0739980000        3.6823410963        6.3780004055
Ga      -11.4814980000        4.6029251799        4.7835020000
 N      -12.1202900000        3.6823410963        6.3780004055
 N       -9.5277900000        4.6029251799        4.7835020000
Ga      -14.0739980000        0.9205860836        7.9725004055
Ga      -11.4814980000        1.8411701673        6.3780020000
 N      -12.1202900000        0.9205860836        7.9725004055
 N       -9.5277900000        1.8411701673        6.3780020000
Ga      -14.0739980000        3.6823410963        9.5670004055
Ga      -11.4814980000        4.6029251799        7.9725020000
 N      -12.1202900000        3.6823410963        9.5670004055
 N       -9.5277900000        4.6029251799        7.9725020000
Ga      -14.0739980000        0.9205860836       11.1615004055
Ga      -11.4814980000        1.8411701673        9.5670020000
 N      -12.1202900000        0.9205860836       11.1615004055
 N       -9.5277900000        1.8411701673        9.5670020000
Ga      -14.0739980000        3.6823410963       12.7560004055
Ga      -11.4814980000        4.6029251799       11.1615020000
 N      -12.1202900000        3.6823410963       12.7560004055
 N       -9.5277900000        4.6029251799       11.1615020000
Ga      -14.0739980000        0.9205860836       14.3505004055
Ga      -11.4814980000        1.8411701673       12.7560020000
 N      -12.1202900000        0.9205860836       14.3505004055
 N       -9.5277900000        1.8411701673       12.7560020000
Ga      -14.0739980000        3.6823410963       15.9450004055
Ga      -11.4814980000        4.6029251799       14.3505020000
 N      -12.1202900000        3.6823410963       15.9450004055
 N       -9.5277900000        4.6029251799       14.3505020000
Ga      -14.0739980000        0.9205860836       17.5395004055
Ga      -11.4814980000        1.8411701673       15.9450020000
 N      -12.1202900000        0.9205860836       17.5395004055
 N       -9.5277900000        1.8411701673       15.9450020000
Ga      -14.0739980000        3.6823410963       19.1340004055
Ga      -11.4814980000        4.6029251799       17.5395020000
 N      -12.1202900000        3.6823410963       19.1340004055
 N       -9.5277900000        4.6029251799       17.5395020000
Ga      -14.0739980000        6.4440961090        1.5945004055
Ga      -11.4814980000        7.3646801926        0.0000020000
 N      -12.1202900000        6.4440961090        1.5945004055
 N       -9.5277900000        7.3646801926        0.0000020000
Ga      -14.0739980000        9.2058511216        3.1890004055
Ga      -11.4814980000       10.1264352053        1.5945020000
 N      -12.1202900000        9.2058511216        3.1890004055
 N       -9.5277900000       10.1264352053        1.5945020000
Ga      -14.0739980000        6.4440961090        4.7835004055
Ga      -11.4814980000        7.3646801926        3.1890020000
 N      -12.1202900000        6.4440961090        4.7835004055
 N       -9.5277900000        7.3646801926        3.1890020000
Ga      -14.0739980000        9.2058511216        6.3780004055
Ga      -11.4814980000       10.1264352053        4.7835020000
 N      -12.1202900000        9.2058511216        6.3780004055
 N       -9.5277900000       10.1264352053        4.7835020000
Ga      -14.0739980000        6.4440961090        7.9725004055
Ga      -11.4814980000        7.3646801926        6.3780020000
 N      -12.1202900000        6.4440961090        7.9725004055
 N       -9.5277900000        7.3646801926        6.3780020000
Ga      -14.0739980000        9.2058511216        9.5670004055
Ga      -11.4814980000       10.1264352053        7.9725020000
 N      -12.1202900000        9.2058511216        9.5670004055
 N       -9.5277900000       10.1264352053        7.9725020000
Ga      -14.0739980000        6.4440961090       11.1615004055
Ga      -11.4814980000        7.3646801926        9.5670020000
 N      -12.1202900000        6.4440961090       11.1615004055
 N       -9.5277900000        7.3646801926        9.5670020000
Ga      -14.0739980000        9.2058511216       12.7560004055
Ga      -11.4814980000       10.1264352053       11.1615020000
 N      -12.1202900000        9.2058511216       12.7560004055
 N       -9.5277900000       10.1264352053       11.1615020000
Ga      -14.0739980000        6.4440961090       14.3505004055
Ga      -11.4814980000        7.3646801926       12.7560020000
 N      -12.1202900000        6.4440961090       14.3505004055
 N       -9.5277900000        7.3646801926       12.7560020000
Ga      -14.0739980000        9.2058511216       15.9450004055
Ga      -11.4814980000       10.1264352053       14.3505020000
 N      -12.1202900000        9.2058511216       15.9450004055
 N       -9.5277900000       10.1264352053       14.3505020000
Ga      -14.0739980000        6.4440961090       17.5395004055
Ga      -11.4814980000        7.3646801926       15.9450020000
 N      -12.1202900000        6.4440961090       17.5395004055
 N       -9.5277900000        7.3646801926       15.9450020000
Ga      -14.0739980000        9.2058511216       19.1340004055
Ga      -11.4814980000       10.1264352053       17.5395020000
 N      -12.1202900000        9.2058511216       19.1340004055
 N       -9.5277900000       10.1264352053       17.5395020000
Ga      -14.0739980000       11.9676061343        1.5945004055
Ga      -11.4814980000       12.8881902180        0.0000020000
 N      -12.1202900000       11.9676061343        1.5945004055
 N       -9.5277900000       12.8881902180        0.0000020000
Ga      -14.0739980000       14.7293611470        3.1890004055
Ga      -11.4814980000       15.6499452306        1.5945020000
 N      -12.1202900000       14.7293611470        3.1890004055
 N       -9.5277900000       15.6499452306        1.5945020000
Ga      -14.0739980000       11.9676061343        4.7835004055
Ga      -11.4814980000       12.8881902180        3.1890020000
 N      -12.1202900000       11.9676061343        4.7835004055
 N       -9.5277900000       12.8881902180        3.1890020000
Ga      -14.0739980000       14.7293611470        6.3780004055
Ga      -11.4814980000       15.6499452306        4.7835020000
 N      -12.1202900000       14.7293611470        6.3780004055
 N       -9.5277900000       15.6499452306        4.7835020000
Ga      -14.0739980000       11.9676061343        7.9725004055
Ga      -11.4814980000       12.8881902180        6.3780020000
 N      -12.1202900000       11.9676061343        7.9725004055
 N       -9.5277900000       12.8881902180        6.3780020000
Ga      -14.0739980000       14.7293611470        9.5670004055
Ga      -11.4814980000       15.6499452306        7.9725020000
 N      -12.1202900000       14.7293611470        9.5670004055
 N       -9.5277900000       15.6499452306        7.9725020000
Ga      -14.0739980000       11.9676061343       11.1615004055
Ga      -11.4814980000       12.8881902180        9.5670020000
 N      -12.1202900000       11.9676061343       11.1615004055
 N       -9.5277900000       12.8881902180        9.5670020000
Ga      -14.0739980000       14.7293611470       12.7560004055
Ga      -11.4814980000       15.6499452306       11.1615020000
 N      -12.1202900000       14.7293611470       12.7560004055
 N       -9.5277900000       15.6499452306       11.1615020000
Ga      -14.0739980000       11.9676061343       14.3505004055
Ga      -11.4814980000       12.8881902180       12.7560020000
 N      -12.1202900000       11.9676061343       14.3505004055
 N       -9.5277900000       12.8881902180       12.7560020000
Ga      -14.0739980000       14.7293611470       15.9450004055
Ga      -11.4814980000       15.6499452306       14.3505020000
 N      -12.1202900000       14.7293611470       15.9450004055
 N       -9.5277900000       15.6499452306       14.3505020000
Ga      -14.0739980000       11.9676061343       17.5395004055
Ga      -11.4814980000       12.8881902180       15.9450020000
 N      -12.1202900000       11.9676061343       17.5395004055
 N       -9.5277900000       12.8881902180       15.9450020000
Ga      -14.0739980000       14.7293611470       19.1340004055
Ga      -11.4814980000       15.6499452306       17.5395020000
 N      -12.1202900000       14.7293611470       19.1340004055
 N       -9.5277900000       15.6499452306       17.5395020000
Ga       -8.8889980000        0.9205860836        1.5945004055
Ga       -6.2964980000        1.8411701673        0.0000020000
 N       -6.9352900000        0.9205860836        1.5945004055
 N       -4.3427900000        1.8411701673        0.0000020000
Ga       -8.8889980000        3.6823410963        3.1890004055
Ga       -6.2964980000        4.6029251799        1.5945020000
 N       -6.9352900000        3.6823410963        3.1890004055
 N       -4.3427900000        4.6029251799        1.5945020000
Ga       -8.8889980000        0.9205860836        4.7835004055
Ga       -6.2964980000        1.8411701673        3.1890020000
 N       -6.9352900000        0.9205860836        4.7835004055
 N       -4.3427900000        1.8411701673        3.1890020000
Ga       -8.8889980000        3.6823410963        6.3780004055
Ga       -6.2964980000        4.6029251799        4.7835020000
 N       -6.9352900000        3.6823410963        6.3780004055
 N       -4.3427900000        4.6029251799        4.7835020000
Ga       -8.8889980000        0.9205860836        7.9725004055
Ga       -6.2964980000        1.8411701673        6.3780020000
 N       -6.9352900000        0.9205860836        7.9725004055
 N       -4.3427900000        1.8411701673        6.3780020000
Ga       -8.8889980000        3.6823410963        9.5670004055
Ga       -6.2964980000        4.6029251799        7.9725020000
 N       -6.9352900000        3.6823410963        9.5670004055
 N       -4.3427900000        4.6029251799        7.9725020000
Ga       -8.8889980000        0.9205860836       11.1615004055
Ga       -6.2964980000        1.8411701673        9.5670020000
 N       -6.9352900000        0.9205860836       11.1615004055
 N       -4.3427900000        1.8411701673        9.5670020000
Ga       -8.8889980000        3.6823410963       12.7560004055
Ga       -6.2964980000        4.6029251799       11.1615020000
 N       -6.9352900000        3.6823410963       12.7560004055
 N       -4.3427900000        4.6029251799       11.1615020000
Ga       -8.8889980000        0.9205860836       14.3505004055
Ga       -6.2964980000        1.8411701673       12.7560020000
 N       -6.9352900000        0.9205860836       14.3505004055
 N       -4.3427900000        1.8411701673       12.7560020000
Ga       -8.8889980000        3.6823410963       15.9450004055
Ga       -6.2964980000        4.6029251799       14.3505020000
 N       -6.9352900000        3.6823410963       15.9450004055
 N       -4.3427900000        4.6029251799       14.3505020000
Ga       -8.8889980000        0.9205860836       17.5395004055
Ga       -6.2964980000        1.8411701673       15.9450020000
 N       -6.9352900000        0.9205860836       17.5395004055
 N       -4.3427900000        1.8411701673       15.9450020000
Ga       -8.8889980000        3.6823410963       19.1340004055
Ga       -6.2964980000        4.6029251799       17.5395020000
 N       -6.9352900000        3.6823410963       19.1340004055
 N       -4.3427900000        4.6029251799       17.5395020000
Ga       -8.8889980000        6.4440961090        1.5945004055
Ga       -6.2964980000        7.3646801926        0.0000020000
 N       -6.9352900000        6.4440961090        1.5945004055
 N       -4.3427900000        7.3646801926        0.0000020000
Ga       -8.8889980000        9.2058511216        3.1890004055
Ga       -6.2964980000       10.1264352053        1.5945020000
 N       -6.9352900000        9.2058511216        3.1890004055
 N       -4.3427900000       10.1264352053        1.5945020000
Ga       -8.8889980000        6.4440961090        4.7835004055
Ga       -6.2964980000        7.3646801926        3.1890020000
 N       -6.9352900000        6.4440961090        4.7835004055
 N       -4.3427900000        7.3646801926        3.1890020000
Ga       -8.8889980000        9.2058511216        6.3780004055
Ga       -6.2964980000       10.1264352053        4.7835020000
 N       -6.9352900000        9.2058511216        6.3780004055
 N       -4.3427900000       10.1264352053        4.7835020000
Ga       -8.8889980000        6.4440961090        7.9725004055
Ga       -6.2964980000        7.3646801926        6.3780020000
 N       -6.9352900000        6.4440961090        7.9725004055
 N       -4.3427900000        7.3646801926        6.3780020000
Ga       -8.8889980000        9.2058511216        9.5670004055
Ga       -6.2964980000       10.1264352053        7.9725020000
 N       -6.9352900000        9.2058511216        9.5670004055
 N       -4.3427900000       10.1264352053        7.9725020000
Ga       -8.8889980000        6.4440961090       11.1615004055
Ga       -6.2964980000        7.3646801926        9.5670020000
 N       -6.9352900000        6.4440961090       11.1615004055
 N       -4.3427900000        7.3646801926        9.5670020000
Ga       -8.8889980000        9.2058511216       12.7560004055
Ga       -6.2964980000       10.1264352053       11.1615020000
 N       -6.9352900000        9.2058511216       12.7560004055
 N       -4.3427900000       10.1264352053       11.1615020000
Ga       -8.8889980000        6.4440961090       14.3505004055
Ga       -6.2964980000        7.3646801926       12.7560020000
 N       -6.9352900000        6.4440961090       14.3505004055
 N       -4.3427900000        7.3646801926       12.7560020000
Ga       -8.8889980000        9.2058511216       15.9450004055
Ga       -6.2964980000       10.1264352053       14.3505020000
 N       -6.9352900000        9.2058511216       15.9450004055
 N       -4.3427900000       10.1264352053       14.3505020000
Ga       -8.8889980000        6.4440961090       17.5395004055
Ga       -6.2964980000        7.3646801926       15.9450020000
 N       -6.9352900000        6.4440961090       17.5395004055
 N       -4.3427900000        7.3646801926       15.9450020000
Ga       -8.8889980000        9.2058511216       19.1340004055
Ga       -6.2964980000       10.1264352053       17.5395020000
 N       -6.9352900000        9.2058511216       19.1340004055
 N       -4.3427900000       10.1264352053       17.5395020000
Ga       -8.8889980000       11.9676061343        1.5945004055
Ga       -6.2964980000       12.8881902180        0.0000020000
 N       -6.9352900000       11.9676061343        1.5945004055
 N       -4.3427900000       12.8881902180        0.0000020000
Ga       -8.8889980000       14.7293611470        3.1890004055
Ga       -6.2964980000       15.6499452306        1.5945020000
 N       -6.9352900000       14.7293611470        3.1890004055
 N       -4.3427900000       15.6499452306        1.5945020000
Ga       -8.8889980000       11.9676061343        4.7835004055
Ga       -6.2964980000       12.8881902180        3.1890020000
 N       -6.9352900000       11.9676061343        4.7835004055
 N       -4.3427900000       12.8881902180        3.1890020000
Ga       -8.8889980000       14.7293611470        6.3780004055
Ga       -6.2964980000       15.6499452306        4.7835020000
 N       -6.9352900000       14.7293611470        6.3780004055
 N       -4.3427900000       15.6499452306        4.7835020000
Ga       -8.8889980000       11.9676061343        7.9725004055
Ga       -6.2964980000       12.8881902180        6.3780020000
 N       -6.9352900000       11.9676061343        7.9725004055
 N       -4.3427900000       12.8881902180        6.3780020000
Ga       -8.8889980000       14.7293611470        9.5670004055
Ga       -6.2964980000       15.6499452306        7.9725020000
 N       -6.9352900000       14.7293611470        9.5670004055
 N       -4.3427900000       15.6499452306        7.9725020000
Ga       -8.8889980000       11.9676061343       11.1615004055
Ga       -6.2964980000       12.8881902180        9.5670020000
 N       -6.9352900000       11.9676061343       11.1615004055
 N       -4.3427900000       12.8881902180        9.5670020000
Ga       -8.8889980000       14.7293611470       12.7560004055
Ga       -6.2964980000       15.6499452306       11.1615020000
 N       -6.9352900000       14.7293611470       12.7560004055
 N       -4.3427900000       15.6499452306       11.1615020000
Ga       -8.8889980000       11.9676061343       14.3505004055
Ga       -6.2964980000       12.8881902180       12.7560020000
 N       -6.9352900000       11.9676061343       14.3505004055
 N       -4.3427900000       12.8881902180       12.7560020000
Ga       -8.8889980000       14.7293611470       15.9450004055
Ga       -6.2964980000       15.6499452306       14.3505020000
 N       -6.9352900000       14.7293611470       15.9450004055
 N       -4.3427900000       15.6499452306       14.3505020000
Ga       -8.8889980000       11.9676061343       17.5395004055
Ga       -6.2964980000       12.8881902180       15.9450020000
 N       -6.9352900000       11.9676061343       17.5395004055
 N       -4.3427900000       12.8881902180       15.9450020000
Ga       -8.8889980000       14.7293611470       19.1340004055
Ga       -6.2964980000       15.6499452306       17.5395020000
 N       -6.9352900000       14.7293611470       19.1340004055
 N       -4.3427900000       15.6499452306       17.5395020000
Ga       -3.7039980000        0.9205860836        1.5945004055
Ga       -1.1114980000        1.8411701673        0.0000020000
 N       -1.7502900000        0.9205860836        1.5945004055
 N        0.8760212115        1.8411701673        0.0000020000
Ga       -3.7039980000        3.6823410963        3.1890004055
Ga       -1.1114980000        4.6029251799        1.5945020000
 N       -1.7502900000        3.6823410963        3.1890004055
 N        0.8760212115        4.6029251799        1.5945020000
Ga       -3.7039980000        0.9205860836        4.7835004055
Ga       -1.1114980000        1.8411701673        3.1890020000
 N       -1.7502900000        0.9205860836        4.7835004055
 N        0.8760212115        1.8411701673        3.1890020000
Ga       -3.7039980000        3.6823410963        6.3780004055
Ga       -1.1114980000        4.6029251799        4.7835020000
 N       -1.7502900000        3.6823410963        6.3780004055
 N        0.8760212115        4.6029251799        4.7835020000
Ga       -3.7039980000        0.9205860836        7.9725004055
Ga       -1.1114980000        1.8411701673        6.3780020000
 N       -1.7502900000        0.9205860836        7.9725004055
 N        0.8760212115        1.8411701673        6.3780020000
Ga       -3.7039980000        3.6823410963        9.5670004055
Ga       -1.1114980000        4.6029251799        7.9725020000
 N       -1.7502900000        3.6823410963        9.5670004055
 N        0.8760212115        4.6029251799        7.9725020000
Ga       -3.7039980000        0.9205860836       11.1615004055
Ga       -1.1114980000        1.8411701673        9.5670020000
 N       -1.7502900000        0.9205860836       11.1615004055
 N        0.8760212115        1.8411701673        9.5670020000
Ga       -3.7039980000        3.6823410963       12.7560004055
Ga       -1.1114980000        4.6029251799       11.1615020000
 N       -1.7502900000        3.6823410963       12.7560004055
 N        0.8760212115        4.6029251799       11.1615020000
Ga       -3.7039980000        0.9205860836       14.3505004055
Ga       -1.1114980000        1.8411701673       12.7560020000
 N       -1.7502900000        0.9205860836       14.3505004055
 N        0.8760212115        1.8411701673       12.7560020000
Ga       -3.7039980000        3.6823410963       15.9450004055
Ga       -1.1114980000        4.6029251799       14.3505020000
 N       -1.7502900000        3.6823410963       15.9450004055
 N        0.8760212115        4.6029251799       14.3505020000
Ga       -3.7039980000        0.9205860836       17.5395004055
Ga       -1.1114980000        1.8411701673       15.9450020000
 N       -1.7502900000        0.9205860836       17.5395004055
 N        0.8760212115        1.8411701673       15.9450020000
Ga       -3.7039980000        3.6823410963       19.1340004055
Ga       -1.1114980000        4.6029251799       17.5395020000
 N       -1.7502900000        3.6823410963       19.1340004055
 N        0.8760212115        4.6029251799       17.5395020000
Ga       -3.7039980000        6.4440961090        1.5945004055
Ga       -1.1114980000        7.3646801926        0.0000020000
 N       -1.7502900000        6.4440961090        1.5945004055
 N        0.8760212115        7.3646801926        0.0000020000
Ga       -3.7039980000        9.2058511216        3.1890004055
Ga       -1.1114980000       10.1264352053        1.5945020000
 N       -1.7502900000        9.2058511216        3.1890004055
 N        0.8760212115       10.1264352053        1.5945020000
Ga       -3.7039980000        6.4440961090        4.7835004055
Ga       -1.1114980000        7.3646801926        3.1890020000
 N       -1.7502900000        6.4440961090        4.7835004055
 N        0.8760212115        7.3646801926        3.1890020000
Ga       -3.7039980000        9.2058511216        6.3780004055
Ga       -1.1114980000       10.1264352053        4.7835020000
 N       -1.7502900000        9.2058511216        6.3780004055
 N        0.8760212115       10.1264352053        4.7835020000
Ga       -3.7039980000        6.4440961090        7.9725004055
Ga       -1.1114980000        7.3646801926        6.3780020000
 N       -1.7502900000        6.4440961090        7.9725004055
 N        0.8760212115        7.3646801926        6.3780020000
Ga       -3.7039980000        9.2058511216        9.5670004055
Ga       -1.1114980000       10.1264352053        7.9725020000
 N       -1.7502900000        9.2058511216        9.5670004055
 N        0.8760212115       10.1264352053        7.9725020000
Ga       -3.7039980000        6.4440961090       11.1615004055
Ga       -1.1114980000        7.3646801926        9.5670020000
 N       -1.7502900000        6.4440961090       11.1615004055
 N        0.8760212115        7.3646801926        9.5670020000
Ga       -3.7039980000        9.2058511216       12.7560004055
Ga       -1.1114980000       10.1264352053       11.1615020000
 N       -1.7502900000        9.2058511216       12.7560004055
 N        0.8760212115       10.1264352053       11.1615020000
Ga       -3.7039980000        6.4440961090       14.3505004055
Ga       -1.1114980000        7.3646801926       12.7560020000
 N       -1.7502900000        6.4440961090       14.3505004055
 N        0.8760212115        7.3646801926       12.7560020000
Ga       -3.7039980000        9.2058511216       15.9450004055
Ga       -1.1114980000       10.1264352053       14.3505020000
 N       -1.7502900000        9.2058511216       15.9450004055
 N        0.8760212115       10.1264352053       14.3505020000
Ga       -3.7039980000        6.4440961090       17.5395004055
Ga       -1.1114980000        7.3646801926       15.9450020000
 N       -1.7502900000        6.4440961090       17.5395004055
 N        0.8760212115        7.3646801926       15.9450020000
Ga       -3.7039980000        9.2058511216       19.1340004055
Ga       -1.1114980000       10.1264352053       17.5395020000
 N       -1.7502900000        9.2058511216       19.1340004055
 N        0.8760212115       10.1264352053       17.5395020000
Ga       -3.7039980000       11.9676061343        1.5945004055
Ga       -1.1114980000       12.8881902180        0.0000020000
 N       -1.7502900000       11.9676061343        1.5945004055
 N        0.8760212115       12.8881902180        0.0000020000
Ga       -3.7039980000       14.7293611470        3.1890004055
Ga       -1.1114980000       15.6499452306        1.5945020000
 N       -1.7502900000       14.7293611470        3.1890004055
 N        0.8760212115       15.6499452306        1.5945020000
Ga       -3.7039980000       11.9676061343        4.7835004055
Ga       -1.1114980000       12.8881902180        3.1890020000
 N       -1.7502900000       11.9676061343        4.7835004055
 N        0.8760212115       12.8881902180        3.1890020000
Ga       -3.7039980000       14.7293611470        6.3780004055
Ga       -1.1114980000       15.6499452306        4.7835020000
 N       -1.7502900000       14.7293611470        6.3780004055
 N        0.8760212115       15.6499452306        4.7835020000
Ga       -3.7039980000       11.9676061343        7.9725004055
Ga       -1.1114980000       12.8881902180        6.3780020000
 N       -1.7502900000       11.9676061343        7.9725004055
 N        0.8760212115       12.8881902180        6.3780020000
Ga       -3.7039980000       14.7293611470        9.5670004055
Ga       -1.1114980000       15.6499452306        7.9725020000
 N       -1.7502900000       14.7293611470        9.5670004055
 N        0.8760212115       15.6499452306        7.9725020000
Ga       -3.7039980000       11.9676061343       11.1615004055
Ga       -1.1114980000       12.8881902180        9.5670020000
 N       -1.7502900000       11.9676061343       11.1615004055
 N        0.8760212115       12.8881902180        9.5670020000
Ga       -3.7039980000       14.7293611470       12.7560004055
Ga       -1.1114980000       15.6499452306       11.1615020000
 N       -1.7502900000       14.7293611470       12.7560004055
 N        0.8760212115       15.6499452306       11.1615020000
Ga       -3.7039980000       11.9676061343       14.3505004055
Ga       -1.1114980000       12.8881902180       12.7560020000
 N       -1.7502900000       11.9676061343       14.3505004055
 N        0.8760212115       12.8881902180       12.7560020000
Ga       -3.7039980000       14.7293611470       15.9450004055
Ga       -1.1114980000       15.6499452306       14.3505020000
 N       -1.7502900000       14.7293611470       15.9450004055
 N        0.8760212115       15.6499452306       14.3505020000
Ga       -3.7039980000       11.9676061343       17.5395004055
Ga       -1.1114980000       12.8881902180       15.9450020000
 N       -1.7502900000       11.9676061343       17.5395004055
 N        0.8760212115       12.8881902180       15.9450020000
Ga       -3.7039980000       14.7293611470       19.1340004055
Ga       -1.1114980000       15.6499452306       17.5395020000
 N       -1.7502900000       14.7293611470       19.1340004055
 N        0.8760212115       15.6499452306       17.5395020000
Ga        1.5404580405        0.9205860836        1.5945004055
In        4.2370360802        1.8411701673        0.0000020000
 N        3.5725992512        0.9205860836        1.5945004055
 N        6.2691772909        1.8411701673        0.0000020000
In        1.5404580405        3.6823410963        3.1890004055
Ga        4.2370360802        4.6029251799        1.5945020000
 N        3.5725992512        3.6823410963        3.1890004055
 N        6.2691772909        4.6029251799        1.5945020000
Ga        1.5404580405        0.9205860836        4.7835004055
In        4.2370360802        1.8411701673        3.1890020000
 N        3.5725992512        0.9205860836        4.7835004055
 N        6.2691772909        1.8411701673        3.1890020000
Ga        1.5404580405        3.6823410963        6.3780004055
Ga        4.2370360802        4.6029251799        4.7835020000
 N        3.5725992512        3.6823410963        6.3780004055
 N        6.2691772909        4.6029251799        4.7835020000
Ga        1.5404580405        0.9205860836        7.9725004055
In        4.2370360802        1.8411701673        6.3780020000
 N        3.5725992512        0.9205860836        7.9725004055
 N        6.2691772909        1.8411701673        6.3780020000
Ga        1.5404580405        3.6823410963        9.5670004055
Ga        4.2370360802        4.6029251799        7.9725020000
 N        3.5725992512        3.6823410963        9.5670004055
 N        6.2691772909        4.6029251799        7.9725020000
In        1.5404580405        0.9205860836       11.1615004055
Ga        4.2370360802        1.8411701673        9.5670020000
 N        3.5725992512        0.9205860836       11.1615004055
 N        6.2691772909        1.8411701673        9.5670020000
Ga        1.5404580405        3.6823410963       12.7560004055
Ga        4.2370360802        4.6029251799       11.1615020000
 N        3.5725992512        3.6823410963       12.7560004055
 N        6.2691772909        4.6029251799       11.1615020000
Ga        1.5404580405        0.9205860836       14.3505004055
Ga        4.2370360802        1.8411701673       12.7560020000
 N        3.5725992512        0.9205860836       14.3505004055
 N        6.2691772909        1.8411701673       12.7560020000
Ga        1.5404580405        3.6823410963       15.9450004055
Ga        4.2370360802        4.6029251799       14.3505020000
 N        3.5725992512        3.6823410963       15.9450004055
 N        6.2691772909        4.6029251799       14.3505020000
Ga        1.5404580405        0.9205860836       17.5395004055
In        4.2370360802        1.8411701673       15.9450020000
 N        3.5725992512        0.9205860836       17.5395004055
 N        6.2691772909        1.8411701673       15.9450020000
Ga        1.5404580405        3.6823410963       19.1340004055
Ga        4.2370360802        4.6029251799       17.5395020000
 N        3.5725992512        3.6823410963       19.1340004055
 N        6.2691772909        4.6029251799       17.5395020000
Ga        1.5404580405        6.4440961090        1.5945004055
In        4.2370360802        7.3646801926        0.0000020000
 N        3.5725992512        6.4440961090        1.5945004055
 N        6.2691772909        7.3646801926        0.0000020000
In        1.5404580405        9.2058511216        3.1890004055
Ga        4.2370360802       10.1264352053        1.5945020000
 N        3.5725992512        9.2058511216        3.1890004055
 N        6.2691772909       10.1264352053        1.5945020000
In        1.5404580405        6.4440961090        4.7835004055
Ga        4.2370360802        7.3646801926        3.1890020000
 N        3.5725992512        6.4440961090        4.7835004055
 N        6.2691772909        7.3646801926        3.1890020000
Ga        1.5404580405        9.2058511216        6.3780004055
In        4.2370360802       10.1264352053        4.7835020000
 N        3.5725992512        9.2058511216        6.3780004055
 N        6.2691772909       10.1264352053        4.7835020000
Ga        1.5404580405        6.4440961090        7.9725004055
In        4.2370360802        7.3646801926        6.3780020000
 N        3.5725992512        6.4440961090        7.9725004055
 N        6.2691772909        7.3646801926        6.3780020000
Ga        1.5404580405        9.2058511216        9.5670004055
Ga        4.2370360802       10.1264352053        7.9725020000
 N        3.5725992512        9.2058511216        9.5670004055
 N        6.2691772909       10.1264352053        7.9725020000
In        1.5404580405        6.4440961090       11.1615004055
Ga        4.2370360802        7.3646801926        9.5670020000
 N        3.5725992512        6.4440961090       11.1615004055
 N        6.2691772909        7.3646801926        9.5670020000
Ga        1.5404580405        9.2058511216       12.7560004055
Ga        4.2370360802       10.1264352053       11.1615020000
 N        3.5725992512        9.2058511216       12.7560004055
 N        6.2691772909       10.1264352053       11.1615020000
Ga        1.5404580405        6.4440961090       14.3505004055
Ga        4.2370360802        7.3646801926       12.7560020000
 N        3.5725992512        6.4440961090       14.3505004055
 N        6.2691772909        7.3646801926       12.7560020000
Ga        1.5404580405        9.2058511216       15.9450004055
Ga        4.2370360802       10.1264352053       14.3505020000
 N        3.5725992512        9.2058511216       15.9450004055
 N        6.2691772909       10.1264352053       14.3505020000
Ga        1.5404580405        6.4440961090       17.5395004055
Ga        4.2370360802        7.3646801926       15.9450020000
 N        3.5725992512        6.4440961090       17.5395004055
 N        6.2691772909        7.3646801926       15.9450020000
In        1.5404580405        9.2058511216       19.1340004055
Ga        4.2370360802       10.1264352053       17.5395020000
 N        3.5725992512        9.2058511216       19.1340004055
 N        6.2691772909       10.1264352053       17.5395020000
Ga        1.5404580405       11.9676061343        1.5945004055
In        4.2370360802       12.8881902180        0.0000020000
 N        3.5725992512       11.9676061343        1.5945004055
 N        6.2691772909       12.8881902180        0.0000020000
Ga        1.5404580405       14.7293611470        3.1890004055
Ga        4.2370360802       15.6499452306        1.5945020000
 N        3.5725992512       14.7293611470        3.1890004055
 N        6.2691772909       15.6499452306        1.5945020000
In        1.5404580405       11.9676061343        4.7835004055
In        4.2370360802       12.8881902180        3.1890020000
 N        3.5725992512       11.9676061343        4.7835004055
 N        6.2691772909       12.8881902180        3.1890020000
Ga        1.5404580405       14.7293611470        6.3780004055
Ga        4.2370360802       15.6499452306        4.7835020000
 N        3.5725992512       14.7293611470        6.3780004055
 N        6.2691772909       15.6499452306        4.7835020000
In        1.5404580405       11.9676061343        7.9725004055
Ga        4.2370360802       12.8881902180        6.3780020000
 N        3.5725992512       11.9676061343        7.9725004055
 N        6.2691772909       12.8881902180        6.3780020000
Ga        1.5404580405       14.7293611470        9.5670004055
Ga        4.2370360802       15.6499452306        7.9725020000
 N        3.5725992512       14.7293611470        9.5670004055
 N        6.2691772909       15.6499452306        7.9725020000
Ga        1.5404580405       11.9676061343       11.1615004055
Ga        4.2370360802       12.8881902180        9.5670020000
 N        3.5725992512       11.9676061343       11.1615004055
 N        6.2691772909       12.8881902180        9.5670020000
In        1.5404580405       14.7293611470       12.7560004055
In        4.2370360802       15.6499452306       11.1615020000
 N        3.5725992512       14.7293611470       12.7560004055
 N        6.2691772909       15.6499452306       11.1615020000
In        1.5404580405       11.9676061343       14.3505004055
Ga        4.2370360802       12.8881902180       12.7560020000
 N        3.5725992512       11.9676061343       14.3505004055
 N        6.2691772909       12.8881902180       12.7560020000
Ga        1.5404580405       14.7293611470       15.9450004055
Ga        4.2370360802       15.6499452306       14.3505020000
 N        3.5725992512       14.7293611470       15.9450004055
 N        6.2691772909       15.6499452306       14.3505020000
Ga        1.5404580405       11.9676061343       17.5395004055
Ga        4.2370360802       12.8881902180       15.9450020000
 N        3.5725992512       11.9676061343       17.5395004055
 N        6.2691772909       12.8881902180       15.9450020000
Ga        1.5404580405       14.7293611470       19.1340004055
Ga        4.2370360802       15.6499452306       17.5395020000
 N        3.5725992512       14.7293611470       19.1340004055
 N        6.2691772909       15.6499452306       17.5395020000
In        6.9336141199        0.9205860836        1.5945004055
In        9.6301921596        1.8411701673        0.0000020000
 N        8.9657553306        0.9205860836        1.5945004055
 N       11.6623333703        1.8411701673        0.0000020000
Ga        6.9336141199        3.6823410963        3.1890004055
In        9.6301921596        4.6029251799        1.5945020000
 N        8.9657553306        3.6823410963        3.1890004055
 N       11.6623333703        4.6029251799        1.5945020000
Ga        6.9336141199        0.9205860836        4.7835004055
Ga        9.6301921596        1.8411701673        3.1890020000
 N        8.9657553306        0.9205860836        4.7835004055
 N       11.6623333703        1.8411701673        3.1890020000
Ga        6.9336141199        3.6823410963        6.3780004055
Ga        9.6301921596        4.6029251799        4.7835020000
 N        8.9657553306        3.6823410963        6.3780004055
 N       11.6623333703        4.6029251799        4.7835020000
Ga        6.9336141199        0.9205860836        7.9725004055
Ga        9.6301921596        1.8411701673        6.3780020000
 N        8.9657553306        0.9205860836        7.9725004055
 N       11.6623333703        1.8411701673        6.3780020000
Ga        6.9336141199        3.6823410963        9.5670004055
Ga        9.6301921596        4.6029251799        7.9725020000
 N        8.9657553306        3.6823410963        9.5670004055
 N       11.6623333703        4.6029251799        7.9725020000
In        6.9336141199        0.9205860836       11.1615004055
In        9.6301921596        1.8411701673        9.5670020000
 N        8.9657553306        0.9205860836       11.1615004055
 N       11.6623333703        1.8411701673        9.5670020000
Ga        6.9336141199        3.6823410963       12.7560004055
In        9.6301921596        4.6029251799       11.1615020000
 N        8.9657553306        3.6823410963       12.7560004055
 N       11.6623333703        4.6029251799       11.1615020000
Ga        6.9336141199        0.9205860836       14.3505004055
Ga        9.6301921596        1.8411701673       12.7560020000
 N        8.9657553306        0.9205860836       14.3505004055
 N       11.6623333703        1.8411701673       12.7560020000
In        6.9336141199        3.6823410963       15.9450004055
Ga        9.6301921596        4.6029251799       14.3505020000
 N        8.9657553306        3.6823410963       15.9450004055
 N       11.6623333703        4.6029251799       14.3505020000
Ga        6.9336141199        0.9205860836       17.5395004055
Ga        9.6301921596        1.8411701673       15.9450020000
 N        8.9657553306        0.9205860836       17.5395004055
 N       11.6623333703        1.8411701673       15.9450020000
Ga        6.9336141199        3.6823410963       19.1340004055
Ga        9.6301921596        4.6029251799       17.5395020000
 N        8.9657553306        3.6823410963       19.1340004055
 N       11.6623333703        4.6029251799       17.5395020000
Ga        6.9336141199        6.4440961090        1.5945004055
Ga        9.6301921596        7.3646801926        0.0000020000
 N        8.9657553306        6.4440961090        1.5945004055
 N       11.6623333703        7.3646801926        0.0000020000
Ga        6.9336141199        9.2058511216        3.1890004055
Ga        9.6301921596       10.1264352053        1.5945020000
 N        8.9657553306        9.2058511216        3.1890004055
 N       11.6623333703       10.1264352053        1.5945020000
In        6.9336141199        6.4440961090        4.7835004055
Ga        9.6301921596        7.3646801926        3.1890020000
 N        8.9657553306        6.4440961090        4.7835004055
 N       11.6623333703        7.3646801926        3.1890020000
Ga        6.9336141199        9.2058511216        6.3780004055
Ga        9.6301921596       10.1264352053        4.7835020000
 N        8.9657553306        9.2058511216        6.3780004055
 N       11.6623333703       10.1264352053        4.7835020000
Ga        6.9336141199        6.4440961090        7.9725004055
In        9.6301921596        7.3646801926        6.3780020000
 N        8.9657553306        6.4440961090        7.9725004055
 N       11.6623333703        7.3646801926        6.3780020000
Ga        6.9336141199        9.2058511216        9.5670004055
Ga        9.6301921596       10.1264352053        7.9725020000
 N        8.9657553306        9.2058511216        9.5670004055
 N       11.6623333703       10.1264352053        7.9725020000
Ga        6.9336141199        6.4440961090       11.1615004055
Ga        9.6301921596        7.3646801926        9.5670020000
 N        8.9657553306        6.4440961090       11.1615004055
 N       11.6623333703        7.3646801926        9.5670020000
In        6.9336141199        9.2058511216       12.7560004055
In        9.6301921596       10.1264352053       11.1615020000
 N        8.9657553306        9.2058511216       12.7560004055
 N       11.6623333703       10.1264352053       11.1615020000
Ga        6.9336141199        6.4440961090       14.3505004055
In        9.6301921596        7.3646801926       12.7560020000
 N        8.9657553306        6.4440961090       14.3505004055
 N       11.6623333703        7.3646801926       12.7560020000
Ga        6.9336141199        9.2058511216       15.9450004055
Ga        9.6301921596       10.1264352053       14.3505020000
 N        8.9657553306        9.2058511216       15.9450004055
 N       11.6623333703       10.1264352053       14.3505020000
Ga        6.9336141199        6.4440961090       17.5395004055
Ga        9.6301921596        7.3646801926       15.9450020000
 N        8.9657553306        6.4440961090       17.5395004055
 N       11.6623333703        7.3646801926       15.9450020000
Ga        6.9336141199        9.2058511216       19.1340004055
Ga        9.6301921596       10.1264352053       17.5395020000
 N        8.9657553306        9.2058511216       19.1340004055
 N       11.6623333703       10.1264352053       17.5395020000
In        6.9336141199       11.9676061343        1.5945004055
Ga        9.6301921596       12.8881902180        0.0000020000
 N        8.9657553306       11.9676061343        1.5945004055
 N       11.6623333703       12.8881902180        0.0000020000
In        6.9336141199       14.7293611470        3.1890004055
Ga        9.6301921596       15.6499452306        1.5945020000
 N        8.9657553306       14.7293611470        3.1890004055
 N       11.6623333703       15.6499452306        1.5945020000
Ga        6.9336141199       11.9676061343        4.7835004055
Ga        9.6301921596       12.8881902180        3.1890020000
 N        8.9657553306       11.9676061343        4.7835004055
 N       11.6623333703       12.8881902180        3.1890020000
Ga        6.9336141199       14.7293611470        6.3780004055
Ga        9.6301921596       15.6499452306        4.7835020000
 N        8.9657553306       14.7293611470        6.3780004055
 N       11.6623333703       15.6499452306        4.7835020000
Ga        6.9336141199       11.9676061343        7.9725004055
In        9.6301921596       12.8881902180        6.3780020000
 N        8.9657553306       11.9676061343        7.9725004055
 N       11.6623333703       12.8881902180        6.3780020000
Ga        6.9336141199       14.7293611470        9.5670004055
Ga        9.6301921596       15.6499452306        7.9725020000
 N        8.9657553306       14.7293611470        9.5670004055
 N       11.6623333703       15.6499452306        7.9725020000
Ga        6.9336141199       11.9676061343       11.1615004055
Ga        9.6301921596       12.8881902180        9.5670020000
 N        8.9657553306       11.9676061343       11.1615004055
 N       11.6623333703       12.8881902180        9.5670020000
Ga        6.9336141199       14.7293611470       12.7560004055
In        9.6301921596       15.6499452306       11.1615020000
 N        8.9657553306       14.7293611470       12.7560004055
 N       11.6623333703       15.6499452306       11.1615020000
Ga        6.9336141199       11.9676061343       14.3505004055
Ga        9.6301921596       12.8881902180       12.7560020000
 N        8.9657553306       11.9676061343       14.3505004055
 N       11.6623333703       12.8881902180       12.7560020000
Ga        6.9336141199       14.7293611470       15.9450004055
In        9.6301921596       15.6499452306       14.3505020000
 N        8.9657553306       14.7293611470       15.9450004055
 N       11.6623333703       15.6499452306       14.3505020000
Ga        6.9336141199       11.9676061343       17.5395004055
Ga        9.6301921596       12.8881902180       15.9450020000
 N        8.9657553306       11.9676061343       17.5395004055
 N       11.6623333703       12.8881902180       15.9450020000
Ga        6.9336141199       14.7293611470       19.1340004055
Ga        9.6301921596       15.6499452306       17.5395020000
 N        8.9657553306       14.7293611470       19.1340004055
 N       11.6623333703       15.6499452306       17.5395020000
Ga       12.3267701993        0.9205860836        1.5945004055
Ga       15.0233482390        1.8411701673        0.0000020000
 N       14.3589114100        0.9205860836        1.5945004055
 N       17.0554894497        1.8411701673        0.0000020000
Ga       12.3267701993        3.6823410963        3.1890004055
Ga       15.0233482390        4.6029251799        1.5945020000
 N       14.3589114100        3.6823410963        3.1890004055
 N       17.0554894497        4.6029251799        1.5945020000
Ga       12.3267701993        0.9205860836        4.7835004055
Ga       15.0233482390        1.8411701673        3.1890020000
 N       14.3589114100        0.9205860836        4.7835004055
 N       17.0554894497        1.8411701673        3.1890020000
Ga       12.3267701993        3.6823410963        6.3780004055
Ga       15.0233482390        4.6029251799        4.7835020000
 N       14.3589114100        3.6823410963        6.3780004055
 N       17.0554894497        4.6029251799        4.7835020000
Ga       12.3267701993        0.9205860836        7.9725004055
Ga       15.0233482390        1.8411701673        6.3780020000
 N       14.3589114100        0.9205860836        7.9725004055
 N       17.0554894497        1.8411701673        6.3780020000
Ga       12.3267701993        3.6823410963        9.5670004055
Ga       15.0233482390        4.6029251799        7.9725020000
 N       14.3589114100        3.6823410963        9.5670004055
 N       17.0554894497        4.6029251799        7.9725020000
Ga       12.3267701993        0.9205860836       11.1615004055
In       15.0233482390        1.8411701673        9.5670020000
 N       14.3589114100        0.9205860836       11.1615004055
 N       17.0554894497        1.8411701673        9.5670020000
Ga       12.3267701993        3.6823410963       12.7560004055
Ga       15.0233482390        4.6029251799       11.1615020000
 N       14.3589114100        3.6823410963       12.7560004055
 N       17.0554894497        4.6029251799       11.1615020000
Ga       12.3267701993        0.9205860836       14.3505004055
In       15.0233482390        1.8411701673       12.7560020000
 N       14.3589114100        0.9205860836       14.3505004055
 N       17.0554894497        1.8411701673       12.7560020000
Ga       12.3267701993        3.6823410963       15.9450004055
Ga       15.0233482390        4.6029251799       14.3505020000
 N       14.3589114100        3.6823410963       15.9450004055
 N       17.0554894497        4.6029251799       14.3505020000
Ga       12.3267701993        0.9205860836       17.5395004055
Ga       15.0233482390        1.8411701673       15.9450020000
 N       14.3589114100        0.9205860836       17.5395004055
 N       17.0554894497        1.8411701673       15.9450020000
Ga       12.3267701993        3.6823410963       19.1340004055
Ga       15.0233482390        4.6029251799       17.5395020000
 N       14.3589114100        3.6823410963       19.1340004055
 N       17.0554894497        4.6029251799       17.5395020000
In       12.3267701993        6.4440961090        1.5945004055
Ga       15.0233482390        7.3646801926        0.0000020000
 N       14.3589114100        6.4440961090        1.5945004055
 N       17.0554894497        7.3646801926        0.0000020000
Ga       12.3267701993        9.2058511216        3.1890004055
Ga       15.0233482390       10.1264352053        1.5945020000
 N       14.3589114100        9.2058511216        3.1890004055
 N       17.0554894497       10.1264352053        1.5945020000
Ga       12.3267701993        6.4440961090        4.7835004055
Ga       15.0233482390        7.3646801926        3.1890020000
 N       14.3589114100        6.4440961090        4.7835004055
 N       17.0554894497        7.3646801926        3.1890020000
Ga       12.3267701993        9.2058511216        6.3780004055
Ga       15.0233482390       10.1264352053        4.7835020000
 N       14.3589114100        9.2058511216        6.3780004055
 N       17.0554894497       10.1264352053        4.7835020000
Ga       12.3267701993        6.4440961090        7.9725004055
Ga       15.0233482390        7.3646801926        6.3780020000
 N       14.3589114100        6.4440961090        7.9725004055
 N       17.0554894497        7.3646801926        6.3780020000
Ga       12.3267701993        9.2058511216        9.5670004055
Ga       15.0233482390       10.1264352053        7.9725020000
 N       14.3589114100        9.2058511216        9.5670004055
 N       17.0554894497       10.1264352053        7.9725020000
Ga       12.3267701993        6.4440961090       11.1615004055
Ga       15.0233482390        7.3646801926        9.5670020000
 N       14.3589114100        6.4440961090       11.1615004055
 N       17.0554894497        7.3646801926        9.5670020000
Ga       12.3267701993        9.2058511216       12.7560004055
In       15.0233482390       10.1264352053       11.1615020000
 N       14.3589114100        9.2058511216       12.7560004055
 N       17.0554894497       10.1264352053       11.1615020000
Ga       12.3267701993        6.4440961090       14.3505004055
Ga       15.0233482390        7.3646801926       12.7560020000
 N       14.3589114100        6.4440961090       14.3505004055
 N       17.0554894497        7.3646801926       12.7560020000
Ga       12.3267701993        9.2058511216       15.9450004055
Ga       15.0233482390       10.1264352053       14.3505020000
 N       14.3589114100        9.2058511216       15.9450004055
 N       17.0554894497       10.1264352053       14.3505020000
In       12.3267701993        6.4440961090       17.5395004055
Ga       15.0233482390        7.3646801926       15.9450020000
 N       14.3589114100        6.4440961090       17.5395004055
 N       17.0554894497        7.3646801926       15.9450020000
In       12.3267701993        9.2058511216       19.1340004055
Ga       15.0233482390       10.1264352053       17.5395020000
 N       14.3589114100        9.2058511216       19.1340004055
 N       17.0554894497       10.1264352053       17.5395020000
Ga       12.3267701993       11.9676061343        1.5945004055
Ga       15.0233482390       12.8881902180        0.0000020000
 N       14.3589114100       11.9676061343        1.5945004055
 N       17.0554894497       12.8881902180        0.0000020000
Ga       12.3267701993       14.7293611470        3.1890004055
Ga       15.0233482390       15.6499452306        1.5945020000
 N       14.3589114100       14.7293611470        3.1890004055
 N       17.0554894497       15.6499452306        1.5945020000
Ga       12.3267701993       11.9676061343        4.7835004055
Ga       15.0233482390       12.8881902180        3.1890020000
 N       14.3589114100       11.9676061343        4.7835004055
 N       17.0554894497       12.8881902180        3.1890020000
Ga       12.3267701993       14.7293611470        6.3780004055
Ga       15.0233482390       15.6499452306        4.7835020000
 N       14.3589114100       14.7293611470        6.3780004055
 N       17.0554894497       15.6499452306        4.7835020000
Ga       12.3267701993       11.9676061343        7.9725004055
Ga       15.0233482390       12.8881902180        6.3780020000
 N       14.3589114100       11.9676061343        7.9725004055
 N       17.0554894497       12.8881902180        6.3780020000
Ga       12.3267701993       14.7293611470        9.5670004055
Ga       15.0233482390       15.6499452306        7.9725020000
 N       14.3589114100       14.7293611470        9.5670004055
 N       17.0554894497       15.6499452306        7.9725020000
In       12.3267701993       11.9676061343       11.1615004055
Ga       15.0233482390       12.8881902180        9.5670020000
 N       14.3589114100       11.9676061343       11.1615004055
 N       17.0554894497       12.8881902180        9.5670020000
Ga       12.3267701993       14.7293611470       12.7560004055
In       15.0233482390       15.6499452306       11.1615020000
 N       14.3589114100       14.7293611470       12.7560004055
 N       17.0554894497       15.6499452306       11.1615020000
In       12.3267701993       11.9676061343       14.3505004055
Ga       15.0233482390       12.8881902180       12.7560020000
 N       14.3589114100       11.9676061343       14.3505004055
 N       17.0554894497       12.8881902180       12.7560020000
Ga       12.3267701993       14.7293611470       15.9450004055
Ga       15.0233482390       15.6499452306       14.3505020000
 N       14.3589114100       14.7293611470       15.9450004055
 N       17.0554894497       15.6499452306       14.3505020000
In       12.3267701993       11.9676061343       17.5395004055
In       15.0233482390       12.8881902180       15.9450020000
 N       14.3589114100       11.9676061343       17.5395004055
 N       17.0554894497       12.8881902180       15.9450020000
Ga       12.3267701993       14.7293611470       19.1340004055
Ga       15.0233482390       15.6499452306       17.5395020000
 N       14.3589114100       14.7293611470       19.1340004055
 N       17.0554894497       15.6499452306       17.5395020000
Ga       17.7199262787        0.9205860836        1.5945004055
Ga       20.4165043184        1.8411701673        0.0000020000
 N       19.7520674894        0.9205860836        1.5945004055
 N       22.4486455291        1.8411701673        0.0000020000
Ga       17.7199262787        3.6823410963        3.1890004055
Ga       20.4165043184        4.6029251799        1.5945020000
 N       19.7520674894        3.6823410963        3.1890004055
 N       22.4486455291        4.6029251799        1.5945020000
Ga       17.7199262787        0.9205860836        4.7835004055
Ga       20.4165043184        1.8411701673        3.1890020000
 N       19.7520674894        0.9205860836        4.7835004055
 N       22.4486455291        1.8411701673        3.1890020000
Ga       17.7199262787        3.6823410963        6.3780004055
Ga       20.4165043184        4.6029251799        4.7835020000
 N       19.7520674894        3.6823410963        6.3780004055
 N       22.4486455291        4.6029251799        4.7835020000
Ga       17.7199262787        0.9205860836        7.9725004055
Ga       20.4165043184        1.8411701673        6.3780020000
 N       19.7520674894        0.9205860836        7.9725004055
 N       22.4486455291        1.8411701673        6.3780020000
In       17.7199262787        3.6823410963        9.5670004055
In       20.4165043184        4.6029251799        7.9725020000
 N       19.7520674894        3.6823410963        9.5670004055
 N       22.4486455291        4.6029251799        7.9725020000
Ga       17.7199262787        0.9205860836       11.1615004055
Ga       20.4165043184        1.8411701673        9.5670020000
 N       19.7520674894        0.9205860836       11.1615004055
 N       22.4486455291        1.8411701673        9.5670020000
Ga       17.7199262787        3.6823410963       12.7560004055
Ga       20.4165043184        4.6029251799       11.1615020000
 N       19.7520674894        3.6823410963       12.7560004055
 N       22.4486455291        4.6029251799       11.1615020000
Ga       17.7199262787        0.9205860836       14.3505004055
In       20.4165043184        1.8411701673       12.7560020000
 N       19.7520674894        0.9205860836       14.3505004055
 N       22.4486455291        1.8411701673       12.7560020000
Ga       17.7199262787        3.6823410963       15.9450004055
Ga       20.4165043184        4.6029251799       14.3505020000
 N       19.7520674894        3.6823410963       15.9450004055
 N       22.4486455291        4.6029251799       14.3505020000
In       17.7199262787        0.9205860836       17.5395004055
Ga       20.4165043184        1.8411701673       15.9450020000
 N       19.7520674894        0.9205860836       17.5395004055
 N       22.4486455291        1.8411701673       15.9450020000
Ga       17.7199262787        3.6823410963       19.1340004055
Ga       20.4165043184        4.6029251799       17.5395020000
 N       19.7520674894        3.6823410963       19.1340004055
 N       22.4486455291        4.6029251799       17.5395020000
Ga       17.7199262787        6.4440961090        1.5945004055
Ga       20.4165043184        7.3646801926        0.0000020000
 N       19.7520674894        6.4440961090        1.5945004055
 N       22.4486455291        7.3646801926        0.0000020000
Ga       17.7199262787        9.2058511216        3.1890004055
In       20.4165043184       10.1264352053        1.5945020000
 N       19.7520674894        9.2058511216        3.1890004055
 N       22.4486455291       10.1264352053        1.5945020000
Ga       17.7199262787        6.4440961090        4.7835004055
Ga       20.4165043184        7.3646801926        3.1890020000
 N       19.7520674894        6.4440961090        4.7835004055
 N       22.4486455291        7.3646801926        3.1890020000
Ga       17.7199262787        9.2058511216        6.3780004055
In       20.4165043184       10.1264352053        4.7835020000
 N       19.7520674894        9.2058511216        6.3780004055
 N       22.4486455291       10.1264352053        4.7835020000
Ga       17.7199262787        6.4440961090        7.9725004055
Ga       20.4165043184        7.3646801926        6.3780020000
 N       19.7520674894        6.4440961090        7.9725004055
 N       22.4486455291        7.3646801926        6.3780020000
Ga       17.7199262787        9.2058511216        9.5670004055
Ga       20.4165043184       10.1264352053        7.9725020000
 N       19.7520674894        9.2058511216        9.5670004055
 N       22.4486455291       10.1264352053        7.9725020000
Ga       17.7199262787        6.4440961090       11.1615004055
Ga       20.4165043184        7.3646801926        9.5670020000
 N       19.7520674894        6.4440961090       11.1615004055
 N       22.4486455291        7.3646801926        9.5670020000
Ga       17.7199262787        9.2058511216       12.7560004055
In       20.4165043184       10.1264352053       11.1615020000
 N       19.7520674894        9.2058511216       12.7560004055
 N       22.4486455291       10.1264352053       11.1615020000
In       17.7199262787        6.4440961090       14.3505004055
Ga       20.4165043184        7.3646801926       12.7560020000
 N       19.7520674894        6.4440961090       14.3505004055
 N       22.4486455291        7.3646801926       12.7560020000
In       17.7199262787        9.2058511216       15.9450004055
Ga       20.4165043184       10.1264352053       14.3505020000
 N       19.7520674894        9.2058511216       15.9450004055
 N       22.4486455291       10.1264352053       14.3505020000
Ga       17.7199262787        6.4440961090       17.5395004055
Ga       20.4165043184        7.3646801926       15.9450020000
 N       19.7520674894        6.4440961090       17.5395004055
 N       22.4486455291        7.3646801926       15.9450020000
In       17.7199262787        9.2058511216       19.1340004055
Ga       20.4165043184       10.1264352053       17.5395020000
 N       19.7520674894        9.2058511216       19.1340004055
 N       22.4486455291       10.1264352053       17.5395020000
Ga       17.7199262787       11.9676061343        1.5945004055
Ga       20.4165043184       12.8881902180        0.0000020000
 N       19.7520674894       11.9676061343        1.5945004055
 N       22.4486455291       12.8881902180        0.0000020000
Ga       17.7199262787       14.7293611470        3.1890004055
Ga       20.4165043184       15.6499452306        1.5945020000
 N       19.7520674894       14.7293611470        3.1890004055
 N       22.4486455291       15.6499452306        1.5945020000
Ga       17.7199262787       11.9676061343        4.7835004055
Ga       20.4165043184       12.8881902180        3.1890020000
 N       19.7520674894       11.9676061343        4.7835004055
 N       22.4486455291       12.8881902180        3.1890020000
Ga       17.7199262787       14.7293611470        6.3780004055
Ga       20.4165043184       15.6499452306        4.7835020000
 N       19.7520674894       14.7293611470        6.3780004055
 N       22.4486455291       15.6499452306        4.7835020000
Ga       17.7199262787       11.9676061343        7.9725004055
Ga       20.4165043184       12.8881902180        6.3780020000
 N       19.7520674894       11.9676061343        7.9725004055
 N       22.4486455291       12.8881902180        6.3780020000
Ga       17.7199262787       14.7293611470        9.5670004055
Ga       20.4165043184       15.6499452306        7.9725020000
 N       19.7520674894       14.7293611470        9.5670004055
 N       22.4486455291       15.6499452306        7.9725020000
Ga       17.7199262787       11.9676061343       11.1615004055
Ga       20.4165043184       12.8881902180        9.5670020000
 N       19.7520674894       11.9676061343       11.1615004055
 N       22.4486455291       12.8881902180        9.5670020000
In       17.7199262787       14.7293611470       12.7560004055
In       20.4165043184       15.6499452306       11.1615020000
 N       19.7520674894       14.7293611470       12.7560004055
 N       22.4486455291       15.6499452306       11.1615020000
Ga       17.7199262787       11.9676061343       14.3505004055
In       20.4165043184       12.8881902180       12.7560020000
 N       19.7520674894       11.9676061343       14.3505004055
 N       22.4486455291       12.8881902180       12.7560020000
In       17.7199262787       14.7293611470       15.9450004055
Ga       20.4165043184       15.6499452306       14.3505020000
 N       19.7520674894       14.7293611470       15.9450004055
 N       22.4486455291       15.6499452306       14.3505020000
Ga       17.7199262787       11.9676061343       17.5395004055
In       20.4165043184       12.8881902180       15.9450020000
 N       19.7520674894       11.9676061343       17.5395004055
 N       22.4486455291       12.8881902180       15.9450020000
Ga       17.7199262787       14.7293611470       19.1340004055
Ga       20.4165043184       15.6499452306       17.5395020000
 N       19.7520674894       14.7293611470       19.1340004055
 N       22.4486455291       15.6499452306       17.5395020000
Ga       23.1130823581        0.9205860836        1.5945004055
Ga       25.8096603978        1.8411701673        0.0000020000
 N       25.1452235688        0.9205860836        1.5945004055
 N       27.8418016085        1.8411701673        0.0000020000
Ga       23.1130823581        3.6823410963        3.1890004055
Ga       25.8096603978        4.6029251799        1.5945020000
 N       25.1452235688        3.6823410963        3.1890004055
 N       27.8418016085        4.6029251799        1.5945020000
Ga       23.1130823581        0.9205860836        4.7835004055
Ga       25.8096603978        1.8411701673        3.1890020000
 N       25.1452235688        0.9205860836        4.7835004055
 N       27.8418016085        1.8411701673        3.1890020000
In       23.1130823581        3.6823410963        6.3780004055
Ga       25.8096603978        4.6029251799        4.7835020000
 N       25.1452235688        3.6823410963        6.3780004055
 N       27.8418016085        4.6029251799        4.7835020000
Ga       23.1130823581        0.9205860836        7.9725004055
In       25.8096603978        1.8411701673        6.3780020000
 N       25.1452235688        0.9205860836        7.9725004055
 N       27.8418016085        1.8411701673        6.3780020000
Ga       23.1130823581        3.6823410963        9.5670004055
Ga       25.8096603978        4.6029251799        7.9725020000
 N       25.1452235688        3.6823410963        9.5670004055
 N       27.8418016085        4.6029251799        7.9725020000
In       23.1130823581        0.9205860836       11.1615004055
In       25.8096603978        1.8411701673        9.5670020000
 N       25.1452235688        0.9205860836       11.1615004055
 N       27.8418016085        1.8411701673        9.5670020000
In       23.1130823581        3.6823410963       12.7560004055
In       25.8096603978        4.6029251799       11.1615020000
 N       25.1452235688        3.6823410963       12.7560004055
 N       27.8418016085        4.6029251799       11.1615020000
Ga       23.1130823581        0.9205860836       14.3505004055
Ga       25.8096603978        1.8411701673       12.7560020000
 N       25.1452235688        0.9205860836       14.3505004055
 N       27.8418016085        1.8411701673       12.7560020000
In       23.1130823581        3.6823410963       15.9450004055
Ga       25.8096603978        4.6029251799       14.3505020000
 N       25.1452235688        3.6823410963       15.9450004055
 N       27.8418016085        4.6029251799       14.3505020000
In       23.1130823581        0.9205860836       17.5395004055
Ga       25.8096603978        1.8411701673       15.9450020000
 N       25.1452235688        0.9205860836       17.5395004055
 N       27.8418016085        1.8411701673       15.9450020000
In       23.1130823581        3.6823410963       19.1340004055
Ga       25.8096603978        4.6029251799       17.5395020000
 N       25.1452235688        3.6823410963       19.1340004055
 N       27.8418016085        4.6029251799       17.5395020000
In       23.1130823581        6.4440961090        1.5945004055
Ga       25.8096603978        7.3646801926        0.0000020000
 N       25.1452235688        6.4440961090        1.5945004055
 N       27.8418016085        7.3646801926        0.0000020000
In       23.1130823581        9.2058511216        3.1890004055
In       25.8096603978       10.1264352053        1.5945020000
 N       25.1452235688        9.2058511216        3.1890004055
 N       27.8418016085       10.1264352053        1.5945020000
In       23.1130823581        6.4440961090        4.7835004055
In       25.8096603978        7.3646801926        3.1890020000
 N       25.1452235688        6.4440961090        4.7835004055
 N       27.8418016085        7.3646801926        3.1890020000
In       23.1130823581        9.2058511216        6.3780004055
Ga       25.8096603978       10.1264352053        4.7835020000
 N       25.1452235688        9.2058511216        6.3780004055
 N       27.8418016085       10.1264352053        4.7835020000
Ga       23.1130823581        6.4440961090        7.9725004055
In       25.8096603978        7.3646801926        6.3780020000
 N       25.1452235688        6.4440961090        7.9725004055
 N       27.8418016085        7.3646801926        6.3780020000
Ga       23.1130823581        9.2058511216        9.5670004055
Ga       25.8096603978       10.1264352053        7.9725020000
 N       25.1452235688        9.2058511216        9.5670004055
 N       27.8418016085       10.1264352053        7.9725020000
Ga       23.1130823581        6.4440961090       11.1615004055
In       25.8096603978        7.3646801926        9.5670020000
 N       25.1452235688        6.4440961090       11.1615004055
 N       27.8418016085        7.3646801926        9.5670020000
In       23.1130823581        9.2058511216       12.7560004055
In       25.8096603978       10.1264352053       11.1615020000
 N       25.1452235688        9.2058511216       12.7560004055
 N       27.8418016085       10.1264352053       11.1615020000
Ga       23.1130823581        6.4440961090       14.3505004055
Ga       25.8096603978        7.3646801926       12.7560020000
 N       25.1452235688        6.4440961090       14.3505004055
 N       27.8418016085        7.3646801926       12.7560020000
Ga       23.1130823581        9.2058511216       15.9450004055
Ga       25.8096603978       10.1264352053       14.3505020000
 N       25.1452235688        9.2058511216       15.9450004055
 N       27.8418016085       10.1264352053       14.3505020000
In       23.1130823581        6.4440961090       17.5395004055
Ga       25.8096603978        7.3646801926       15.9450020000
 N       25.1452235688        6.4440961090       17.5395004055
 N       27.8418016085        7.3646801926       15.9450020000
Ga       23.1130823581        9.2058511216       19.1340004055
Ga       25.8096603978       10.1264352053       17.5395020000
 N       25.1452235688        9.2058511216       19.1340004055
 N       27.8418016085       10.1264352053       17.5395020000
Ga       23.1130823581       11.9676061343        1.5945004055
Ga       25.8096603978       12.8881902180        0.0000020000
 N       25.1452235688       11.9676061343        1.5945004055
 N       27.8418016085       12.8881902180        0.0000020000
Ga       23.1130823581       14.7293611470        3.1890004055
Ga       25.8096603978       15.6499452306        1.5945020000
 N       25.1452235688       14.7293611470        3.1890004055
 N       27.8418016085       15.6499452306        1.5945020000
In       23.1130823581       11.9676061343        4.7835004055
Ga       25.8096603978       12.8881902180        3.1890020000
 N       25.1452235688       11.9676061343        4.7835004055
 N       27.8418016085       12.8881902180        3.1890020000
Ga       23.1130823581       14.7293611470        6.3780004055
Ga       25.8096603978       15.6499452306        4.7835020000
 N       25.1452235688       14.7293611470        6.3780004055
 N       27.8418016085       15.6499452306        4.7835020000
Ga       23.1130823581       11.9676061343        7.9725004055
Ga       25.8096603978       12.8881902180        6.3780020000
 N       25.1452235688       11.9676061343        7.9725004055
 N       27.8418016085       12.8881902180        6.3780020000
In       23.1130823581       14.7293611470        9.5670004055
Ga       25.8096603978       15.6499452306        7.9725020000
 N       25.1452235688       14.7293611470        9.5670004055
 N       27.8418016085       15.6499452306        7.9725020000
Ga       23.1130823581       11.9676061343       11.1615004055
Ga       25.8096603978       12.8881902180        9.5670020000
 N       25.1452235688       11.9676061343       11.1615004055
 N       27.8418016085       12.8881902180        9.5670020000
Ga       23.1130823581       14.7293611470       12.7560004055
In       25.8096603978       15.6499452306       11.1615020000
 N       25.1452235688       14.7293611470       12.7560004055
 N       27.8418016085       15.6499452306       11.1615020000
Ga       23.1130823581       11.9676061343       14.3505004055
Ga       25.8096603978       12.8881902180       12.7560020000
 N       25.1452235688       11.9676061343       14.3505004055
 N       27.8418016085       12.8881902180       12.7560020000
Ga       23.1130823581       14.7293611470       15.9450004055
Ga       25.8096603978       15.6499452306       14.3505020000
 N       25.1452235688       14.7293611470       15.9450004055
 N       27.8418016085       15.6499452306       14.3505020000
Ga       23.1130823581       11.9676061343       17.5395004055
Ga       25.8096603978       12.8881902180       15.9450020000
 N       25.1452235688       11.9676061343       17.5395004055
 N       27.8418016085       12.8881902180       15.9450020000
In       23.1130823581       14.7293611470       19.1340004055
Ga       25.8096603978       15.6499452306       17.5395020000
 N       25.1452235688       14.7293611470       19.1340004055
 N       27.8418016085       15.6499452306       17.5395020000
Ga       28.5062384374        0.9205860836        1.5945004055
Ga       31.2028164771        1.8411701673        0.0000020000
 N       30.5383796482        0.9205860836        1.5945004055
 N       33.1565846156        1.8411701673        0.0000020000
Ga       28.5062384374        3.6823410963        3.1890004055
Ga       31.2028164771        4.6029251799        1.5945020000
 N       30.5383796482        3.6823410963        3.1890004055
 N       33.1565846156        4.6029251799        1.5945020000
In       28.5062384374        0.9205860836        4.7835004055
Ga       31.2028164771        1.8411701673        3.1890020000
 N       30.5383796482        0.9205860836        4.7835004055
 N       33.1565846156        1.8411701673        3.1890020000
Ga       28.5062384374        3.6823410963        6.3780004055
Ga       31.2028164771        4.6029251799        4.7835020000
 N       30.5383796482        3.6823410963        6.3780004055
 N       33.1565846156        4.6029251799        4.7835020000
Ga       28.5062384374        0.9205860836        7.9725004055
Ga       31.2028164771        1.8411701673        6.3780020000
 N       30.5383796482        0.9205860836        7.9725004055
 N       33.1565846156        1.8411701673        6.3780020000
In       28.5062384374        3.6823410963        9.5670004055
Ga       31.2028164771        4.6029251799        7.9725020000
 N       30.5383796482        3.6823410963        9.5670004055
 N       33.1565846156        4.6029251799        7.9725020000
Ga       28.5062384374        0.9205860836       11.1615004055
Ga       31.2028164771        1.8411701673        9.5670020000
 N       30.5383796482        0.9205860836       11.1615004055
 N       33.1565846156        1.8411701673        9.5670020000
Ga       28.5062384374        3.6823410963       12.7560004055
In       31.2028164771        4.6029251799       11.1615020000
 N       30.5383796482        3.6823410963       12.7560004055
 N       33.1565846156        4.6029251799       11.1615020000
Ga       28.5062384374        0.9205860836       14.3505004055
In       31.2028164771        1.8411701673       12.7560020000
 N       30.5383796482        0.9205860836       14.3505004055
 N       33.1565846156        1.8411701673       12.7560020000
In       28.5062384374        3.6823410963       15.9450004055
Ga       31.2028164771        4.6029251799       14.3505020000
 N       30.5383796482        3.6823410963       15.9450004055
 N       33.1565846156        4.6029251799       14.3505020000
Ga       28.5062384374        0.9205860836       17.5395004055
Ga       31.2028164771        1.8411701673       15.9450020000
 N       30.5383796482        0.9205860836       17.5395004055
 N       33.1565846156        1.8411701673       15.9450020000
Ga       28.5062384374        3.6823410963       19.1340004055
Ga       31.2028164771        4.6029251799       17.5395020000
 N       30.5383796482        3.6823410963       19.1340004055
 N       33.1565846156        4.6029251799       17.5395020000
Ga       28.5062384374        6.4440961090        1.5945004055
Ga       31.2028164771        7.3646801926        0.0000020000
 N       30.5383796482        6.4440961090        1.5945004055
 N       33.1565846156        7.3646801926        0.0000020000
Ga       28.5062384374        9.2058511216        3.1890004055
Ga       31.2028164771       10.1264352053        1.5945020000
 N       30.5383796482        9.2058511216        3.1890004055
 N       33.1565846156       10.1264352053        1.5945020000
Ga       28.5062384374        6.4440961090        4.7835004055
In       31.2028164771        7.3646801926        3.1890020000
 N       30.5383796482        6.4440961090        4.7835004055
 N       33.1565846156        7.3646801926        3.1890020000
In       28.5062384374        9.2058511216        6.3780004055
Ga       31.2028164771       10.1264352053        4.7835020000
 N       30.5383796482        9.2058511216        6.3780004055
 N       33.1565846156       10.1264352053        4.7835020000
Ga       28.5062384374        6.4440961090        7.9725004055
Ga       31.2028164771        7.3646801926        6.3780020000
 N       30.5383796482        6.4440961090        7.9725004055
 N       33.1565846156        7.3646801926        6.3780020000
Ga       28.5062384374        9.2058511216        9.5670004055
In       31.2028164771       10.1264352053        7.9725020000
 N       30.5383796482        9.2058511216        9.5670004055
 N       33.1565846156       10.1264352053        7.9725020000
In       28.5062384374        6.4440961090       11.1615004055
Ga       31.2028164771        7.3646801926        9.5670020000
 N       30.5383796482        6.4440961090       11.1615004055
 N       33.1565846156        7.3646801926        9.5670020000
Ga       28.5062384374        9.2058511216       12.7560004055
In       31.2028164771       10.1264352053       11.1615020000
 N       30.5383796482        9.2058511216       12.7560004055
 N       33.1565846156       10.1264352053       11.1615020000
Ga       28.5062384374        6.4440961090       14.3505004055
Ga       31.2028164771        7.3646801926       12.7560020000
 N       30.5383796482        6.4440961090       14.3505004055
 N       33.1565846156        7.3646801926       12.7560020000
Ga       28.5062384374        9.2058511216       15.9450004055
In       31.2028164771       10.1264352053       14.3505020000
 N       30.5383796482        9.2058511216       15.9450004055
 N       33.1565846156       10.1264352053       14.3505020000
Ga       28.5062384374        6.4440961090       17.5395004055
Ga       31.2028164771        7.3646801926       15.9450020000
 N       30.5383796482        6.4440961090       17.5395004055
 N       33.1565846156        7.3646801926       15.9450020000
Ga       28.5062384374        9.2058511216       19.1340004055
In       31.2028164771       10.1264352053       17.5395020000
 N       30.5383796482        9.2058511216       19.1340004055
 N       33.1565846156       10.1264352053       17.5395020000
In       28.5062384374       11.9676061343        1.5945004055
Ga       31.2028164771       12.8881902180        0.0000020000
 N       30.5383796482       11.9676061343        1.5945004055
 N       33.1565846156       12.8881902180        0.0000020000
Ga       28.5062384374       14.7293611470        3.1890004055
In       31.2028164771       15.6499452306        1.5945020000
 N       30.5383796482       14.7293611470        3.1890004055
 N       33.1565846156       15.6499452306        1.5945020000
Ga       28.5062384374       11.9676061343        4.7835004055
Ga       31.2028164771       12.8881902180        3.1890020000
 N       30.5383796482       11.9676061343        4.7835004055
 N       33.1565846156       12.8881902180        3.1890020000
Ga       28.5062384374       14.7293611470        6.3780004055
Ga       31.2028164771       15.6499452306        4.7835020000
 N       30.5383796482       14.7293611470        6.3780004055
 N       33.1565846156       15.6499452306        4.7835020000
Ga       28.5062384374       11.9676061343        7.9725004055
Ga       31.2028164771       12.8881902180        6.3780020000
 N       30.5383796482       11.9676061343        7.9725004055
 N       33.1565846156       12.8881902180        6.3780020000
In       28.5062384374       14.7293611470        9.5670004055
In       31.2028164771       15.6499452306        7.9725020000
 N       30.5383796482       14.7293611470        9.5670004055
 N       33.1565846156       15.6499452306        7.9725020000
In       28.5062384374       11.9676061343       11.1615004055
Ga       31.2028164771       12.8881902180        9.5670020000
 N       30.5383796482       11.9676061343       11.1615004055
 N       33.1565846156       12.8881902180        9.5670020000
Ga       28.5062384374       14.7293611470       12.7560004055
Ga       31.2028164771       15.6499452306       11.1615020000
 N       30.5383796482       14.7293611470       12.7560004055
 N       33.1565846156       15.6499452306       11.1615020000
Ga       28.5062384374       11.9676061343       14.3505004055
In       31.2028164771       12.8881902180       12.7560020000
 N       30.5383796482       11.9676061343       14.3505004055
 N       33.1565846156       12.8881902180       12.7560020000
Ga       28.5062384374       14.7293611470       15.9450004055
Ga       31.2028164771       15.6499452306       14.3505020000
 N       30.5383796482       14.7293611470       15.9450004055
 N       33.1565846156       15.6499452306       14.3505020000
In       28.5062384374       11.9676061343       17.5395004055
In       31.2028164771       12.8881902180       15.9450020000
 N       30.5383796482       11.9676061343       17.5395004055
 N       33.1565846156       12.8881902180       15.9450020000
Ga       28.5062384374       14.7293611470       19.1340004055
In       31.2028164771       15.6499452306       17.5395020000
 N       30.5383796482       14.7293611470       19.1340004055
 N       33.1565846156       15.6499452306       17.5395020000
Ga       33.7953766156        0.9205860836        1.5945004055
Ga       36.3878766156        1.8411701673        0.0000020000
 N       35.7490846156        0.9205860836        1.5945004055
 N       38.3415846156        1.8411701673        0.0000020000
Ga       33.7953766156        3.6823410963        3.1890004055
Ga       36.3878766156        4.6029251799        1.5945020000
 N       35.7490846156        3.6823410963        3.1890004055
 N       38.3415846156        4.6029251799        1.5945020000
Ga       33.7953766156        0.9205860836        4.7835004055
Ga       36.3878766156        1.8411701673        3.1890020000
 N       35.7490846156        0.9205860836        4.7835004055
 N       38.3415846156        1.8411701673        3.1890020000
Ga       33.7953766156        3.6823410963        6.3780004055
Ga       36.3878766156        4.6029251799        4.7835020000
 N       35.7490846156        3.6823410963        6.3780004055
 N       38.3415846156        4.6029251799        4.7835020000
Ga       33.7953766156        0.9205860836        7.9725004055
Ga       36.3878766156        1.8411701673        6.3780020000
 N       35.7490846156        0.9205860836        7.9725004055
 N       38.3415846156        1.8411701673        6.3780020000
Ga       33.7953766156        3.6823410963        9.5670004055
Ga       36.3878766156        4.6029251799        7.9725020000
 N       35.7490846156        3.6823410963        9.5670004055
 N       38.3415846156        4.6029251799        7.9725020000
Ga       33.7953766156        0.9205860836       11.1615004055
Ga       36.3878766156        1.8411701673        9.5670020000
 N       35.7490846156        0.9205860836       11.1615004055
 N       38.3415846156        1.8411701673        9.5670020000
Ga       33.7953766156        3.6823410963       12.7560004055
Ga       36.3878766156        4.6029251799       11.1615020000
 N       35.7490846156        3.6823410963       12.7560004055
 N       38.3415846156        4.6029251799       11.1615020000
Ga       33.7953766156        0.9205860836       14.3505004055
Ga       36.3878766156        1.8411701673       12.7560020000
 N       35.7490846156        0.9205860836       14.3505004055
 N       38.3415846156        1.8411701673       12.7560020000
Ga       33.7953766156        3.6823410963       15.9450004055
Ga       36.3878766156        4.6029251799       14.3505020000
 N       35.7490846156        3.6823410963       15.9450004055
 N       38.3415846156        4.6029251799       14.3505020000
Ga       33.7953766156        0.9205860836       17.5395004055
Ga       36.3878766156        1.8411701673       15.9450020000
 N       35.7490846156        0.9205860836       17.5395004055
 N       38.3415846156        1.8411701673       15.9450020000
Ga       33.7953766156        3.6823410963       19.1340004055
Ga       36.3878766156        4.6029251799       17.5395020000
 N       35.7490846156        3.6823410963       19.1340004055
 N       38.3415846156        4.6029251799       17.5395020000
Ga       33.7953766156        6.4440961090        1.5945004055
Ga       36.3878766156        7.3646801926        0.0000020000
 N       35.7490846156        6.4440961090        1.5945004055
 N       38.3415846156        7.3646801926        0.0000020000
Ga       33.7953766156        9.2058511216        3.1890004055
Ga       36.3878766156       10.1264352053        1.5945020000
 N       35.7490846156        9.2058511216        3.1890004055
 N       38.3415846156       10.1264352053        1.5945020000
Ga       33.7953766156        6.4440961090        4.7835004055
Ga       36.3878766156        7.3646801926        3.1890020000
 N       35.7490846156        6.4440961090        4.7835004055
 N       38.3415846156        7.3646801926        3.1890020000
Ga       33.7953766156        9.2058511216        6.3780004055
Ga       36.3878766156       10.1264352053        4.7835020000
 N       35.7490846156        9.2058511216        6.3780004055
 N       38.3415846156       10.1264352053        4.7835020000
Ga       33.7953766156        6.4440961090        7.9725004055
Ga       36.3878766156        7.3646801926        6.3780020000
 N       35.7490846156        6.4440961090        7.9725004055
 N       38.3415846156        7.3646801926        6.3780020000
Ga       33.7953766156        9.2058511216        9.5670004055
Ga       36.3878766156       10.1264352053        7.9725020000
 N       35.7490846156        9.2058511216        9.5670004055
 N       38.3415846156       10.1264352053        7.9725020000
Ga       33.7953766156        6.4440961090       11.1615004055
Ga       36.3878766156        7.3646801926        9.5670020000
 N       35.7490846156        6.4440961090       11.1615004055
 N       38.3415846156        7.3646801926        9.5670020000
Ga       33.7953766156        9.2058511216       12.7560004055
Ga       36.3878766156       10.1264352053       11.1615020000
 N       35.7490846156        9.2058511216       12.7560004055
 N       38.3415846156       10.1264352053       11.1615020000
Ga       33.7953766156        6.4440961090       14.3505004055
Ga       36.3878766156        7.3646801926       12.7560020000
 N       35.7490846156        6.4440961090       14.3505004055
 N       38.3415846156        7.3646801926       12.7560020000
Ga       33.7953766156        9.2058511216       15.9450004055
Ga       36.3878766156       10.1264352053       14.3505020000
 N       35.7490846156        9.2058511216       15.9450004055
 N       38.3415846156       10.1264352053       14.3505020000
Ga       33.7953766156        6.4440961090       17.5395004055
Ga       36.3878766156        7.3646801926       15.9450020000
 N       35.7490846156        6.4440961090       17.5395004055
 N       38.3415846156        7.3646801926       15.9450020000
Ga       33.7953766156        9.2058511216       19.1340004055
Ga       36.3878766156       10.1264352053       17.5395020000
 N       35.7490846156        9.2058511216       19.1340004055
 N       38.3415846156       10.1264352053       17.5395020000
Ga       33.7953766156       11.9676061343        1.5945004055
Ga       36.3878766156       12.8881902180        0.0000020000
 N       35.7490846156       11.9676061343        1.5945004055
 N       38.3415846156       12.8881902180        0.0000020000
Ga       33.7953766156       14.7293611470        3.1890004055
Ga       36.3878766156       15.6499452306        1.5945020000
 N       35.7490846156       14.7293611470        3.1890004055
 N       38.3415846156       15.6499452306        1.5945020000
Ga       33.7953766156       11.9676061343        4.7835004055
Ga       36.3878766156       12.8881902180        3.1890020000
 N       35.7490846156       11.9676061343        4.7835004055
 N       38.3415846156       12.8881902180        3.1890020000
Ga       33.7953766156       14.7293611470        6.3780004055
Ga       36.3878766156       15.6499452306        4.7835020000
 N       35.7490846156       14.7293611470        6.3780004055
 N       38.3415846156       15.6499452306        4.7835020000
Ga       33.7953766156       11.9676061343        7.9725004055
Ga       36.3878766156       12.8881902180        6.3780020000
 N       35.7490846156       11.9676061343        7.9725004055
 N       38.3415846156       12.8881902180        6.3780020000
Ga       33.7953766156       14.7293611470        9.5670004055
Ga       36.3878766156       15.6499452306        7.9725020000
 N       35.7490846156       14.7293611470        9.5670004055
 N       38.3415846156       15.6499452306        7.9725020000
Ga       33.7953766156       11.9676061343       11.1615004055
Ga       36.3878766156       12.8881902180        9.5670020000
 N       35.7490846156       11.9676061343       11.1615004055
 N       38.3415846156       12.8881902180        9.5670020000
Ga       33.7953766156       14.7293611470       12.7560004055
Ga       36.3878766156       15.6499452306       11.1615020000
 N       35.7490846156       14.7293611470       12.7560004055
 N       38.3415846156       15.6499452306       11.1615020000
Ga       33.7953766156       11.9676061343       14.3505004055
Ga       36.3878766156       12.8881902180       12.7560020000
 N       35.7490846156       11.9676061343       14.3505004055
 N       38.3415846156       12.8881902180       12.7560020000
Ga       33.7953766156       14.7293611470       15.9450004055
Ga       36.3878766156       15.6499452306       14.3505020000
 N       35.7490846156       14.7293611470       15.9450004055
 N       38.3415846156       15.6499452306       14.3505020000
Ga       33.7953766156       11.9676061343       17.5395004055
Ga       36.3878766156       12.8881902180       15.9450020000
 N       35.7490846156       11.9676061343       17.5395004055
 N       38.3415846156       12.8881902180       15.9450020000
Ga       33.7953766156       14.7293611470       19.1340004055
Ga       36.3878766156       15.6499452306       17.5395020000
 N       35.7490846156       14.7293611470       19.1340004055
 N       38.3415846156       15.6499452306       17.5395020000
Ga       38.9803766156        0.9205860836        1.5945004055
Ga       41.5728766156        1.8411701673        0.0000020000
 N       40.9340846156        0.9205860836        1.5945004055
 N       43.5265846156        1.8411701673        0.0000020000
Ga       38.9803766156        3.6823410963        3.1890004055
Ga       41.5728766156        4.6029251799        1.5945020000
 N       40.9340846156        3.6823410963        3.1890004055
 N       43.5265846156        4.6029251799        1.5945020000
Ga       38.9803766156        0.9205860836        4.7835004055
Ga       41.5728766156        1.8411701673        3.1890020000
 N       40.9340846156        0.9205860836        4.7835004055
 N       43.5265846156        1.8411701673        3.1890020000
Ga       38.9803766156        3.6823410963        6.3780004055
Ga       41.5728766156        4.6029251799        4.7835020000
 N       40.9340846156        3.6823410963        6.3780004055
 N       43.5265846156        4.6029251799        4.7835020000
Ga       38.9803766156        0.9205860836        7.9725004055
Ga       41.5728766156        1.8411701673        6.3780020000
 N       40.9340846156        0.9205860836        7.9725004055
 N       43.5265846156        1.8411701673        6.3780020000
Ga       38.9803766156        3.6823410963        9.5670004055
Ga       41.5728766156        4.6029251799        7.9725020000
 N       40.9340846156        3.6823410963        9.5670004055
 N       43.5265846156        4.6029251799        7.9725020000
Ga       38.9803766156        0.9205860836       11.1615004055
Ga       41.5728766156        1.8411701673        9.5670020000
 N       40.9340846156        0.9205860836       11.1615004055
 N       43.5265846156        1.8411701673        9.5670020000
Ga       38.9803766156        3.6823410963       12.7560004055
Ga       41.5728766156        4.6029251799       11.1615020000
 N       40.9340846156        3.6823410963       12.7560004055
 N       43.5265846156        4.6029251799       11.1615020000
Ga       38.9803766156        0.9205860836       14.3505004055
Ga       41.5728766156        1.8411701673       12.7560020000
 N       40.9340846156        0.9205860836       14.3505004055
 N       43.5265846156        1.8411701673       12.7560020000
Ga       38.9803766156        3.6823410963       15.9450004055
Ga       41.5728766156        4.6029251799       14.3505020000
 N       40.9340846156        3.6823410963       15.9450004055
 N       43.5265846156        4.6029251799       14.3505020000
Ga       38.9803766156        0.9205860836       17.5395004055
Ga       41.5728766156        1.8411701673       15.9450020000
 N       40.9340846156        0.9205860836       17.5395004055
 N       43.5265846156        1.8411701673       15.9450020000
Ga       38.9803766156        3.6823410963       19.1340004055
Ga       41.5728766156        4.6029251799       17.5395020000
 N       40.9340846156        3.6823410963       19.1340004055
 N       43.5265846156        4.6029251799       17.5395020000
Ga       38.9803766156        6.4440961090        1.5945004055
Ga       41.5728766156        7.3646801926        0.0000020000
 N       40.9340846156        6.4440961090        1.5945004055
 N       43.5265846156        7.3646801926        0.0000020000
Ga       38.9803766156        9.2058511216        3.1890004055
Ga       41.5728766156       10.1264352053        1.5945020000
 N       40.9340846156        9.2058511216        3.1890004055
 N       43.5265846156       10.1264352053        1.5945020000
Ga       38.9803766156        6.4440961090        4.7835004055
Ga       41.5728766156        7.3646801926        3.1890020000
 N       40.9340846156        6.4440961090        4.7835004055
 N       43.5265846156        7.3646801926        3.1890020000
Ga       38.9803766156        9.2058511216        6.3780004055
Ga       41.5728766156       10.1264352053        4.7835020000
 N       40.9340846156        9.2058511216        6.3780004055
 N       43.5265846156       10.1264352053        4.7835020000
Ga       38.9803766156        6.4440961090        7.9725004055
Ga       41.5728766156        7.3646801926        6.3780020000
 N       40.9340846156        6.4440961090        7.9725004055
 N       43.5265846156        7.3646801926        6.3780020000
Ga       38.9803766156        9.2058511216        9.5670004055
Ga       41.5728766156       10.1264352053        7.9725020000
 N       40.9340846156        9.2058511216        9.5670004055
 N       43.5265846156       10.1264352053        7.9725020000
Ga       38.9803766156        6.4440961090       11.1615004055
Ga       41.5728766156        7.3646801926        9.5670020000
 N       40.9340846156        6.4440961090       11.1615004055
 N       43.5265846156        7.3646801926        9.5670020000
Ga       38.9803766156        9.2058511216       12.7560004055
Ga       41.5728766156       10.1264352053       11.1615020000
 N       40.9340846156        9.2058511216       12.7560004055
 N       43.5265846156       10.1264352053       11.1615020000
Ga       38.9803766156        6.4440961090       14.3505004055
Ga       41.5728766156        7.3646801926       12.7560020000
 N       40.9340846156        6.4440961090       14.3505004055
 N       43.5265846156        7.3646801926       12.7560020000
Ga       38.9803766156        9.2058511216       15.9450004055
Ga       41.5728766156       10.1264352053       14.3505020000
 N       40.9340846156        9.2058511216       15.9450004055
 N       43.5265846156       10.1264352053       14.3505020000
Ga       38.9803766156        6.4440961090       17.5395004055
Ga       41.5728766156        7.3646801926       15.9450020000
 N       40.9340846156        6.4440961090       17.5395004055
 N       43.5265846156        7.3646801926       15.9450020000
Ga       38.9803766156        9.2058511216       19.1340004055
Ga       41.5728766156       10.1264352053       17.5395020000
 N       40.9340846156        9.2058511216       19.1340004055
 N       43.5265846156       10.1264352053       17.5395020000
Ga       38.9803766156       11.9676061343        1.5945004055
Ga       41.5728766156       12.8881902180        0.0000020000
 N       40.9340846156       11.9676061343        1.5945004055
 N       43.5265846156       12.8881902180        0.0000020000
Ga       38.9803766156       14.7293611470        3.1890004055
Ga       41.5728766156       15.6499452306        1.5945020000
 N       40.9340846156       14.7293611470        3.1890004055
 N       43.5265846156       15.6499452306        1.5945020000
Ga       38.9803766156       11.9676061343        4.7835004055
Ga       41.5728766156       12.8881902180        3.1890020000
 N       40.9340846156       11.9676061343        4.7835004055
 N       43.5265846156       12.8881902180        3.1890020000
Ga       38.9803766156       14.7293611470        6.3780004055
Ga       41.5728766156       15.6499452306        4.7835020000
 N       40.9340846156       14.7293611470        6.3780004055
 N       43.5265846156       15.6499452306        4.7835020000
Ga       38.9803766156       11.9676061343        7.9725004055
Ga       41.5728766156       12.8881902180        6.3780020000
 N       40.9340846156       11.9676061343        7.9725004055
 N       43.5265846156       12.8881902180        6.3780020000
Ga       38.9803766156       14.7293611470        9.5670004055
Ga       41.5728766156       15.6499452306        7.9725020000
 N       40.9340846156       14.7293611470        9.5670004055
 N       43.5265846156       15.6499452306        7.9725020000
Ga       38.9803766156       11.9676061343       11.1615004055
Ga       41.5728766156       12.8881902180        9.5670020000
 N       40.9340846156       11.9676061343       11.1615004055
 N       43.5265846156       12.8881902180        9.5670020000
Ga       38.9803766156       14.7293611470       12.7560004055
Ga       41.5728766156       15.6499452306       11.1615020000
 N       40.9340846156       14.7293611470       12.7560004055
 N       43.5265846156       15.6499452306       11.1615020000
Ga       38.9803766156       11.9676061343       14.3505004055
Ga       41.5728766156       12.8881902180       12.7560020000
 N       40.9340846156       11.9676061343       14.3505004055
 N       43.5265846156       12.8881902180       12.7560020000
Ga       38.9803766156       14.7293611470       15.9450004055
Ga       41.5728766156       15.6499452306       14.3505020000
 N       40.9340846156       14.7293611470       15.9450004055
 N       43.5265846156       15.6499452306       14.3505020000
Ga       38.9803766156       11.9676061343       17.5395004055
Ga       41.5728766156       12.8881902180       15.9450020000
 N       40.9340846156       11.9676061343       17.5395004055
 N       43.5265846156       12.8881902180       15.9450020000
Ga       38.9803766156       14.7293611470       19.1340004055
Ga       41.5728766156       15.6499452306       17.5395020000
 N       40.9340846156       14.7293611470       19.1340004055
 N       43.5265846156       15.6499452306       17.5395020000
Ga       44.1653766156        0.9205860836        1.5945004055
Ga       46.7578766156        1.8411701673        0.0000020000
 N       46.1190846156        0.9205860836        1.5945004055
 N       48.7115846156        1.8411701673        0.0000020000
Ga       44.1653766156        3.6823410963        3.1890004055
Ga       46.7578766156        4.6029251799        1.5945020000
 N       46.1190846156        3.6823410963        3.1890004055
 N       48.7115846156        4.6029251799        1.5945020000
Ga       44.1653766156        0.9205860836        4.7835004055
Ga       46.7578766156        1.8411701673        3.1890020000
 N       46.1190846156        0.9205860836        4.7835004055
 N       48.7115846156        1.8411701673        3.1890020000
Ga       44.1653766156        3.6823410963        6.3780004055
Ga       46.7578766156        4.6029251799        4.7835020000
 N       46.1190846156        3.6823410963        6.3780004055
 N       48.7115846156        4.6029251799        4.7835020000
Ga       44.1653766156        0.9205860836        7.9725004055
Ga       46.7578766156        1.8411701673        6.3780020000
 N       46.1190846156        0.9205860836        7.9725004055
 N       48.7115846156        1.8411701673        6.3780020000
Ga       44.1653766156        3.6823410963        9.5670004055
Ga       46.7578766156        4.6029251799        7.9725020000
 N       46.1190846156        3.6823410963        9.5670004055
 N       48.7115846156        4.6029251799        7.9725020000
Ga       44.1653766156        0.9205860836       11.1615004055
Ga       46.7578766156        1.8411701673        9.5670020000
 N       46.1190846156        0.9205860836       11.1615004055
 N       48.7115846156        1.8411701673        9.5670020000
Ga       44.1653766156        3.6823410963       12.7560004055
Ga       46.7578766156        4.6029251799       11.1615020000
 N       46.1190846156        3.6823410963       12.7560004055
 N       48.7115846156        4.6029251799       11.1615020000
Ga       44.1653766156        0.9205860836       14.3505004055
Ga       46.7578766156        1.8411701673       12.7560020000
 N       46.1190846156        0.9205860836       14.3505004055
 N       48.7115846156        1.8411701673       12.7560020000
Ga       44.1653766156        3.6823410963       15.9450004055
Ga       46.7578766156        4.6029251799       14.3505020000
 N       46.1190846156        3.6823410963       15.9450004055
 N       48.7115846156        4.6029251799       14.3505020000
Ga       44.1653766156        0.9205860836       17.5395004055
Ga       46.7578766156        1.8411701673       15.9450020000
 N       46.1190846156        0.9205860836       17.5395004055
 N       48.7115846156        1.8411701673       15.9450020000
Ga       44.1653766156        3.6823410963       19.1340004055
Ga       46.7578766156        4.6029251799       17.5395020000
 N       46.1190846156        3.6823410963       19.1340004055
 N       48.7115846156        4.6029251799       17.5395020000
Ga       44.1653766156        6.4440961090        1.5945004055
Ga       46.7578766156        7.3646801926        0.0000020000
 N       46.1190846156        6.4440961090        1.5945004055
 N       48.7115846156        7.3646801926        0.0000020000
Ga       44.1653766156        9.2058511216        3.1890004055
Ga       46.7578766156       10.1264352053        1.5945020000
 N       46.1190846156        9.2058511216        3.1890004055
 N       48.7115846156       10.1264352053        1.5945020000
Ga       44.1653766156        6.4440961090        4.7835004055
Ga       46.7578766156        7.3646801926        3.1890020000
 N       46.1190846156        6.4440961090        4.7835004055
 N       48.7115846156        7.3646801926        3.1890020000
Ga       44.1653766156        9.2058511216        6.3780004055
Ga       46.7578766156       10.1264352053        4.7835020000
 N       46.1190846156        9.2058511216        6.3780004055
 N       48.7115846156       10.1264352053        4.7835020000
Ga       44.1653766156        6.4440961090        7.9725004055
Ga       46.7578766156        7.3646801926        6.3780020000
 N       46.1190846156        6.4440961090        7.9725004055
 N       48.7115846156        7.3646801926        6.3780020000
Ga       44.1653766156        9.2058511216        9.5670004055
Ga       46.7578766156       10.1264352053        7.9725020000
 N       46.1190846156        9.2058511216        9.5670004055
 N       48.7115846156       10.1264352053        7.9725020000
Ga       44.1653766156        6.4440961090       11.1615004055
Ga       46.7578766156        7.3646801926        9.5670020000
 N       46.1190846156        6.4440961090       11.1615004055
 N       48.7115846156        7.3646801926        9.5670020000
Ga       44.1653766156        9.2058511216       12.7560004055
Ga       46.7578766156       10.1264352053       11.1615020000
 N       46.1190846156        9.2058511216       12.7560004055
 N       48.7115846156       10.1264352053       11.1615020000
Ga       44.1653766156        6.4440961090       14.3505004055
Ga       46.7578766156        7.3646801926       12.7560020000
 N       46.1190846156        6.4440961090       14.3505004055
 N       48.7115846156        7.3646801926       12.7560020000
Ga       44.1653766156        9.2058511216       15.9450004055
Ga       46.7578766156       10.1264352053       14.3505020000
 N       46.1190846156        9.2058511216       15.9450004055
 N       48.7115846156       10.1264352053       14.3505020000
Ga       44.1653766156        6.4440961090       17.5395004055
Ga       46.7578766156        7.3646801926       15.9450020000
 N       46.1190846156        6.4440961090       17.5395004055
 N       48.7115846156        7.3646801926       15.9450020000
Ga       44.1653766156        9.2058511216       19.1340004055
Ga       46.7578766156       10.1264352053       17.5395020000
 N       46.1190846156        9.2058511216       19.1340004055
 N       48.7115846156       10.1264352053       17.5395020000
Ga       44.1653766156       11.9676061343        1.5945004055
Ga       46.7578766156       12.8881902180        0.0000020000
 N       46.1190846156       11.9676061343        1.5945004055
 N       48.7115846156       12.8881902180        0.0000020000
Ga       44.1653766156       14.7293611470        3.1890004055
Ga       46.7578766156       15.6499452306        1.5945020000
 N       46.1190846156       14.7293611470        3.1890004055
 N       48.7115846156       15.6499452306        1.5945020000
Ga       44.1653766156       11.9676061343        4.7835004055
Ga       46.7578766156       12.8881902180        3.1890020000
 N       46.1190846156       11.9676061343        4.7835004055
 N       48.7115846156       12.8881902180        3.1890020000
Ga       44.1653766156       14.7293611470        6.3780004055
Ga       46.7578766156       15.6499452306        4.7835020000
 N       46.1190846156       14.7293611470        6.3780004055
 N       48.7115846156       15.6499452306        4.7835020000
Ga       44.1653766156       11.9676061343        7.9725004055
Ga       46.7578766156       12.8881902180        6.3780020000
 N       46.1190846156       11.9676061343        7.9725004055
 N       48.7115846156       12.8881902180        6.3780020000
Ga       44.1653766156       14.7293611470        9.5670004055
Ga       46.7578766156       15.6499452306        7.9725020000
 N       46.1190846156       14.7293611470        9.5670004055
 N       48.7115846156       15.6499452306        7.9725020000
Ga       44.1653766156       11.9676061343       11.1615004055
Ga       46.7578766156       12.8881902180        9.5670020000
 N       46.1190846156       11.9676061343       11.1615004055
 N       48.7115846156       12.8881902180        9.5670020000
Ga       44.1653766156       14.7293611470       12.7560004055
Ga       46.7578766156       15.6499452306       11.1615020000
 N       46.1190846156       14.7293611470       12.7560004055
 N       48.7115846156       15.6499452306       11.1615020000
Ga       44.1653766156       11.9676061343       14.3505004055
Ga       46.7578766156       12.8881902180       12.7560020000
 N       46.1190846156       11.9676061343       14.3505004055
 N       48.7115846156       12.8881902180       12.7560020000
Ga       44.1653766156       14.7293611470       15.9450004055
Ga       46.7578766156       15.6499452306       14.3505020000
 N       46.1190846156       14.7293611470       15.9450004055
 N       48.7115846156       15.6499452306       14.3505020000
Ga       44.1653766156       11.9676061343       17.5395004055
Ga       46.7578766156       12.8881902180       15.9450020000
 N       46.1190846156       11.9676061343       17.5395004055
 N       48.7115846156       12.8881902180       15.9450020000
Ga       44.1653766156       14.7293611470       19.1340004055
Ga       46.7578766156       15.6499452306       17.5395020000
 N       46.1190846156       14.7293611470       19.1340004055
 N       48.7115846156       15.6499452306       17.5395020000
Ga       49.3503766156        0.9205860836        1.5945004055
Ga       51.9428766156        1.8411701673        0.0000020000
 N       51.3040846156        0.9205860836        1.5945004055
 N       53.8965846156        1.8411701673        0.0000020000
Ga       49.3503766156        3.6823410963        3.1890004055
Ga       51.9428766156        4.6029251799        1.5945020000
 N       51.3040846156        3.6823410963        3.1890004055
 N       53.8965846156        4.6029251799        1.5945020000
Ga       49.3503766156        0.9205860836        4.7835004055
Ga       51.9428766156        1.8411701673        3.1890020000
 N       51.3040846156        0.9205860836        4.7835004055
 N       53.8965846156        1.8411701673        3.1890020000
Ga       49.3503766156        3.6823410963        6.3780004055
Ga       51.9428766156        4.6029251799        4.7835020000
 N       51.3040846156        3.6823410963        6.3780004055
 N       53.8965846156        4.6029251799        4.7835020000
Ga       49.3503766156        0.9205860836        7.9725004055
Ga       51.9428766156        1.8411701673        6.3780020000
 N       51.3040846156        0.9205860836        7.9725004055
 N       53.8965846156        1.8411701673        6.3780020000
Ga       49.3503766156        3.6823410963        9.5670004055
Ga       51.9428766156        4.6029251799        7.9725020000
 N       51.3040846156        3.6823410963        9.5670004055
 N       53.8965846156        4.6029251799        7.9725020000
Ga       49.3503766156        0.9205860836       11.1615004055
Ga       51.9428766156        1.8411701673        9.5670020000
 N       51.3040846156        0.9205860836       11.1615004055
 N       53.8965846156        1.8411701673        9.5670020000
Ga       49.3503766156        3.6823410963       12.7560004055
Ga       51.9428766156        4.6029251799       11.1615020000
 N       51.3040846156        3.6823410963       12.7560004055
 N       53.8965846156        4.6029251799       11.1615020000
Ga       49.3503766156        0.9205860836       14.3505004055
Ga       51.9428766156        1.8411701673       12.7560020000
 N       51.3040846156        0.9205860836       14.3505004055
 N       53.8965846156        1.8411701673       12.7560020000
Ga       49.3503766156        3.6823410963       15.9450004055
Ga       51.9428766156        4.6029251799       14.3505020000
 N       51.3040846156        3.6823410963       15.9450004055
 N       53.8965846156        4.6029251799       14.3505020000
Ga       49.3503766156        0.9205860836       17.5395004055
Ga       51.9428766156        1.8411701673       15.9450020000
 N       51.3040846156        0.9205860836       17.5395004055
 N       53.8965846156        1.8411701673       15.9450020000
Ga       49.3503766156        3.6823410963       19.1340004055
Ga       51.9428766156        4.6029251799       17.5395020000
 N       51.3040846156        3.6823410963       19.1340004055
 N       53.8965846156        4.6029251799       17.5395020000
Ga       49.3503766156        6.4440961090        1.5945004055
Ga       51.9428766156        7.3646801926        0.0000020000
 N       51.3040846156        6.4440961090        1.5945004055
 N       53.8965846156        7.3646801926        0.0000020000
Ga       49.3503766156        9.2058511216        3.1890004055
Ga       51.9428766156       10.1264352053        1.5945020000
 N       51.3040846156        9.2058511216        3.1890004055
 N       53.8965846156       10.1264352053        1.5945020000
Ga       49.3503766156        6.4440961090        4.7835004055
Ga       51.9428766156        7.3646801926        3.1890020000
 N       51.3040846156        6.4440961090        4.7835004055
 N       53.8965846156        7.3646801926        3.1890020000
Ga       49.3503766156        9.2058511216        6.3780004055
Ga       51.9428766156       10.1264352053        4.7835020000
 N       51.3040846156        9.2058511216        6.3780004055
 N       53.8965846156       10.1264352053        4.7835020000
Ga       49.3503766156        6.4440961090        7.9725004055
Ga       51.9428766156        7.3646801926        6.3780020000
 N       51.3040846156        6.4440961090        7.9725004055
 N       53.8965846156        7.3646801926        6.3780020000
Ga       49.3503766156        9.2058511216        9.5670004055
Ga       51.9428766156       10.1264352053        7.9725020000
 N       51.3040846156        9.2058511216        9.5670004055
 N       53.8965846156       10.1264352053        7.9725020000
Ga       49.3503766156        6.4440961090       11.1615004055
Ga       51.9428766156        7.3646801926        9.5670020000
 N       51.3040846156        6.4440961090       11.1615004055
 N       53.8965846156        7.3646801926        9.5670020000
Ga       49.3503766156        9.2058511216       12.7560004055
Ga       51.9428766156       10.1264352053       11.1615020000
 N       51.3040846156        9.2058511216       12.7560004055
 N       53.8965846156       10.1264352053       11.1615020000
Ga       49.3503766156        6.4440961090       14.3505004055
Ga       51.9428766156        7.3646801926       12.7560020000
 N       51.3040846156        6.4440961090       14.3505004055
 N       53.8965846156        7.3646801926       12.7560020000
Ga       49.3503766156        9.2058511216       15.9450004055
Ga       51.9428766156       10.1264352053       14.3505020000
 N       51.3040846156        9.2058511216       15.9450004055
 N       53.8965846156       10.1264352053       14.3505020000
Ga       49.3503766156        6.4440961090       17.5395004055
Ga       51.9428766156        7.3646801926       15.9450020000
 N       51.3040846156        6.4440961090       17.5395004055
 N       53.8965846156        7.3646801926       15.9450020000
Ga       49.3503766156        9.2058511216       19.1340004055
Ga       51.9428766156       10.1264352053       17.5395020000
 N       51.3040846156        9.2058511216       19.1340004055
 N       53.8965846156       10.1264352053       17.5395020000
Ga       49.3503766156       11.9676061343        1.5945004055
Ga       51.9428766156       12.8881902180        0.0000020000
 N       51.3040846156       11.9676061343        1.5945004055
 N       53.8965846156       12.8881902180        0.0000020000
Ga       49.3503766156       14.7293611470        3.1890004055
Ga       51.9428766156       15.6499452306        1.5945020000
 N       51.3040846156       14.7293611470        3.1890004055
 N       53.8965846156       15.6499452306        1.5945020000
Ga       49.3503766156       11.9676061343        4.7835004055
Ga       51.9428766156       12.8881902180        3.1890020000
 N       51.3040846156       11.9676061343        4.7835004055
 N       53.8965846156       12.8881902180        3.1890020000
Ga       49.3503766156       14.7293611470        6.3780004055
Ga       51.9428766156       15.6499452306        4.7835020000
 N       51.3040846156       14.7293611470        6.3780004055
 N       53.8965846156       15.6499452306        4.7835020000
Ga       49.3503766156       11.9676061343        7.9725004055
Ga       51.9428766156       12.8881902180        6.3780020000
 N       51.3040846156       11.9676061343        7.9725004055
 N       53.8965846156       12.8881902180        6.3780020000
Ga       49.3503766156       14.7293611470        9.5670004055
Ga       51.9428766156       15.6499452306        7.9725020000
 N       51.3040846156       14.7293611470        9.5670004055
 N       53.8965846156       15.6499452306        7.9725020000
Ga       49.3503766156       11.9676061343       11.1615004055
Ga       51.9428766156       12.8881902180        9.5670020000
 N       51.3040846156       11.9676061343       11.1615004055
 N       53.8965846156       12.8881902180        9.5670020000
Ga       49.3503766156       14.7293611470       12.7560004055
Ga       51.9428766156       15.6499452306       11.1615020000
 N       51.3040846156       14.7293611470       12.7560004055
 N       53.8965846156       15.6499452306       11.1615020000
Ga       49.3503766156       11.9676061343       14.3505004055
Ga       51.9428766156       12.8881902180       12.7560020000
 N       51.3040846156       11.9676061343       14.3505004055
 N       53.8965846156       12.8881902180       12.7560020000
Ga       49.3503766156       14.7293611470       15.9450004055
Ga       51.9428766156       15.6499452306       14.3505020000
 N       51.3040846156       14.7293611470       15.9450004055
 N       53.8965846156       15.6499452306       14.3505020000
Ga       49.3503766156       11.9676061343       17.5395004055
Ga       51.9428766156       12.8881902180       15.9450020000
 N       51.3040846156       11.9676061343       17.5395004055
 N       53.8965846156       12.8881902180       15.9450020000
Ga       49.3503766156       14.7293611470       19.1340004055
Ga       51.9428766156       15.6499452306       17.5395020000
 N       51.3040846156       14.7293611470       19.1340004055
 N       53.8965846156       15.6499452306       17.5395020000
Ga       54.5353766156        0.9205860836        1.5945004055
Ga       57.1278766156        1.8411701673        0.0000020000
 N       56.4890846156        0.9205860836        1.5945004055
 N       59.0815846156        1.8411701673        0.0000020000
Ga       54.5353766156        3.6823410963        3.1890004055
Ga       57.1278766156        4.6029251799        1.5945020000
 N       56.4890846156        3.6823410963        3.1890004055
 N       59.0815846156        4.6029251799        1.5945020000
Ga       54.5353766156        0.9205860836        4.7835004055
Ga       57.1278766156        1.8411701673        3.1890020000
 N       56.4890846156        0.9205860836        4.7835004055
 N       59.0815846156        1.8411701673        3.1890020000
Ga       54.5353766156        3.6823410963        6.3780004055
Ga       57.1278766156        4.6029251799        4.7835020000
 N       56.4890846156        3.6823410963        6.3780004055
 N       59.0815846156        4.6029251799        4.7835020000
Ga       54.5353766156        0.9205860836        7.9725004055
Ga       57.1278766156        1.8411701673        6.3780020000
 N       56.4890846156        0.9205860836        7.9725004055
 N       59.0815846156        1.8411701673        6.3780020000
Ga       54.5353766156        3.6823410963        9.5670004055
Ga       57.1278766156        4.6029251799        7.9725020000
 N       56.4890846156        3.6823410963        9.5670004055
 N       59.0815846156        4.6029251799        7.9725020000
Ga       54.5353766156        0.9205860836       11.1615004055
Ga       57.1278766156        1.8411701673        9.5670020000
 N       56.4890846156        0.9205860836       11.1615004055
 N       59.0815846156        1.8411701673        9.5670020000
Ga       54.5353766156        3.6823410963       12.7560004055
Ga       57.1278766156        4.6029251799       11.1615020000
 N       56.4890846156        3.6823410963       12.7560004055
 N       59.0815846156        4.6029251799       11.1615020000
Ga       54.5353766156        0.9205860836       14.3505004055
Ga       57.1278766156        1.8411701673       12.7560020000
 N       56.4890846156        0.9205860836       14.3505004055
 N       59.0815846156        1.8411701673       12.7560020000
Ga       54.5353766156        3.6823410963       15.9450004055
Ga       57.1278766156        4.6029251799       14.3505020000
 N       56.4890846156        3.6823410963       15.9450004055
 N       59.0815846156        4.6029251799       14.3505020000
Ga       54.5353766156        0.9205860836       17.5395004055
Ga       57.1278766156        1.8411701673       15.9450020000
 N       56.4890846156        0.9205860836       17.5395004055
 N       59.0815846156        1.8411701673       15.9450020000
Ga       54.5353766156        3.6823410963       19.1340004055
Ga       57.1278766156        4.6029251799       17.5395020000
 N       56.4890846156        3.6823410963       19.1340004055
 N       59.0815846156        4.6029251799       17.5395020000
Ga       54.5353766156        6.4440961090        1.5945004055
Ga       57.1278766156        7.3646801926        0.0000020000
 N       56.4890846156        6.4440961090        1.5945004055
 N       59.0815846156        7.3646801926        0.0000020000
Ga       54.5353766156        9.2058511216        3.1890004055
Ga       57.1278766156       10.1264352053        1.5945020000
 N       56.4890846156        9.2058511216        3.1890004055
 N       59.0815846156       10.1264352053        1.5945020000
Ga       54.5353766156        6.4440961090        4.7835004055
Ga       57.1278766156        7.3646801926        3.1890020000
 N       56.4890846156        6.4440961090        4.7835004055
 N       59.0815846156        7.3646801926        3.1890020000
Ga       54.5353766156        9.2058511216        6.3780004055
Ga       57.1278766156       10.1264352053        4.7835020000
 N       56.4890846156        9.2058511216        6.3780004055
 N       59.0815846156       10.1264352053        4.7835020000
Ga       54.5353766156        6.4440961090        7.9725004055
Ga       57.1278766156        7.3646801926        6.3780020000
 N       56.4890846156        6.4440961090        7.9725004055
 N       59.0815846156        7.3646801926        6.3780020000
Ga       54.5353766156        9.2058511216        9.5670004055
Ga       57.1278766156       10.1264352053        7.9725020000
 N       56.4890846156        9.2058511216        9.5670004055
 N       59.0815846156       10.1264352053        7.9725020000
Ga       54.5353766156        6.4440961090       11.1615004055
Ga       57.1278766156        7.3646801926        9.5670020000
 N       56.4890846156        6.4440961090       11.1615004055
 N       59.0815846156        7.3646801926        9.5670020000
Ga       54.5353766156        9.2058511216       12.7560004055
Ga       57.1278766156       10.1264352053       11.1615020000
 N       56.4890846156        9.2058511216       12.7560004055
 N       59.0815846156       10.1264352053       11.1615020000
Ga       54.5353766156        6.4440961090       14.3505004055
Ga       57.1278766156        7.3646801926       12.7560020000
 N       56.4890846156        6.4440961090       14.3505004055
 N       59.0815846156        7.3646801926       12.7560020000
Ga       54.5353766156        9.2058511216       15.9450004055
Ga       57.1278766156       10.1264352053       14.3505020000
 N       56.4890846156        9.2058511216       15.9450004055
 N       59.0815846156       10.1264352053       14.3505020000
Ga       54.5353766156        6.4440961090       17.5395004055
Ga       57.1278766156        7.3646801926       15.9450020000
 N       56.4890846156        6.4440961090       17.5395004055
 N       59.0815846156        7.3646801926       15.9450020000
Ga       54.5353766156        9.2058511216       19.1340004055
Ga       57.1278766156       10.1264352053       17.5395020000
 N       56.4890846156        9.2058511216       19.1340004055
 N       59.0815846156       10.1264352053       17.5395020000
Ga       54.5353766156       11.9676061343        1.5945004055
Ga       57.1278766156       12.8881902180        0.0000020000
 N       56.4890846156       11.9676061343        1.5945004055
 N       59.0815846156       12.8881902180        0.0000020000
Ga       54.5353766156       14.7293611470        3.1890004055
Ga       57.1278766156       15.6499452306        1.5945020000
 N       56.4890846156       14.7293611470        3.1890004055
 N       59.0815846156       15.6499452306        1.5945020000
Ga       54.5353766156       11.9676061343        4.7835004055
Ga       57.1278766156       12.8881902180        3.1890020000
 N       56.4890846156       11.9676061343        4.7835004055
 N       59.0815846156       12.8881902180        3.1890020000
Ga       54.5353766156       14.7293611470        6.3780004055
Ga       57.1278766156       15.6499452306        4.7835020000
 N       56.4890846156       14.7293611470        6.3780004055
 N       59.0815846156       15.6499452306        4.7835020000
Ga       54.5353766156       11.9676061343        7.9725004055
Ga       57.1278766156       12.8881902180        6.3780020000
 N       56.4890846156       11.9676061343        7.9725004055
 N       59.0815846156       12.8881902180        6.3780020000
Ga       54.5353766156       14.7293611470        9.5670004055
Ga       57.1278766156       15.6499452306        7.9725020000
 N       56.4890846156       14.7293611470        9.5670004055
 N       59.0815846156       15.6499452306        7.9725020000
Ga       54.5353766156       11.9676061343       11.1615004055
Ga       57.1278766156       12.8881902180        9.5670020000
 N       56.4890846156       11.9676061343       11.1615004055
 N       59.0815846156       12.8881902180        9.5670020000
Ga       54.5353766156       14.7293611470       12.7560004055
Ga       57.1278766156       15.6499452306       11.1615020000
 N       56.4890846156       14.7293611470       12.7560004055
 N       59.0815846156       15.6499452306       11.1615020000
Ga       54.5353766156       11.9676061343       14.3505004055
Ga       57.1278766156       12.8881902180       12.7560020000
 N       56.4890846156       11.9676061343       14.3505004055
 N       59.0815846156       12.8881902180       12.7560020000
Ga       54.5353766156       14.7293611470       15.9450004055
Ga       57.1278766156       15.6499452306       14.3505020000
 N       56.4890846156       14.7293611470       15.9450004055
 N       59.0815846156       15.6499452306       14.3505020000
Ga       54.5353766156       11.9676061343       17.5395004055
Ga       57.1278766156       12.8881902180       15.9450020000
 N       56.4890846156       11.9676061343       17.5395004055
 N       59.0815846156       12.8881902180       15.9450020000
Ga       54.5353766156       14.7293611470       19.1340004055
Ga       57.1278766156       15.6499452306       17.5395020000
 N       56.4890846156       14.7293611470       19.1340004055
 N       59.0815846156       15.6499452306       17.5395020000
Ga       59.7203766156        0.9205860836        1.5945004055
Ga       62.3128766156        1.8411701673        0.0000020000
 N       61.6740846156        0.9205860836        1.5945004055
 N       64.2665846156        1.8411701673        0.0000020000
Ga       59.7203766156        3.6823410963        3.1890004055
Ga       62.3128766156        4.6029251799        1.5945020000
 N       61.6740846156        3.6823410963        3.1890004055
 N       64.2665846156        4.6029251799        1.5945020000
Ga       59.7203766156        0.9205860836        4.7835004055
Ga       62.3128766156        1.8411701673        3.1890020000
 N       61.6740846156        0.9205860836        4.7835004055
 N       64.2665846156        1.8411701673        3.1890020000
Ga       59.7203766156        3.6823410963        6.3780004055
Ga       62.3128766156        4.6029251799        4.7835020000
 N       61.6740846156        3.6823410963        6.3780004055
 N       64.2665846156        4.6029251799        4.7835020000
Ga       59.7203766156        0.9205860836        7.9725004055
Ga       62.3128766156        1.8411701673        6.3780020000
 N       61.6740846156        0.9205860836        7.9725004055
 N       64.2665846156        1.8411701673        6.3780020000
Ga       59.7203766156        3.6823410963        9.5670004055
Ga       62.3128766156        4.6029251799        7.9725020000
 N       61.6740846156        3.6823410963        9.5670004055
 N       64.2665846156        4.6029251799        7.9725020000
Ga       59.7203766156        0.9205860836       11.1615004055
Ga       62.3128766156        1.8411701673        9.5670020000
 N       61.6740846156        0.9205860836       11.1615004055
 N       64.2665846156        1.8411701673        9.5670020000
Ga       59.7203766156        3.6823410963       12.7560004055
Ga       62.3128766156        4.6029251799       11.1615020000
 N       61.6740846156        3.6823410963       12.7560004055
 N       64.2665846156        4.6029251799       11.1615020000
Ga       59.7203766156        0.9205860836       14.3505004055
Ga       62.3128766156        1.8411701673       12.7560020000
 N       61.6740846156        0.9205860836       14.3505004055
 N       64.2665846156        1.8411701673       12.7560020000
Ga       59.7203766156        3.6823410963       15.9450004055
Ga       62.3128766156        4.6029251799       14.3505020000
 N       61.6740846156        3.6823410963       15.9450004055
 N       64.2665846156        4.6029251799       14.3505020000
Ga       59.7203766156        0.9205860836       17.5395004055
Ga       62.3128766156        1.8411701673       15.9450020000
 N       61.6740846156        0.9205860836       17.5395004055
 N       64.2665846156        1.8411701673       15.9450020000
Ga       59.7203766156        3.6823410963       19.1340004055
Ga       62.3128766156        4.6029251799       17.5395020000
 N       61.6740846156        3.6823410963       19.1340004055
 N       64.2665846156        4.6029251799       17.5395020000
Ga       59.7203766156        6.4440961090        1.5945004055
Ga       62.3128766156        7.3646801926        0.0000020000
 N       61.6740846156        6.4440961090        1.5945004055
 N       64.2665846156        7.3646801926        0.0000020000
Ga       59.7203766156        9.2058511216        3.1890004055
Ga       62.3128766156       10.1264352053        1.5945020000
 N       61.6740846156        9.2058511216        3.1890004055
 N       64.2665846156       10.1264352053        1.5945020000
Ga       59.7203766156        6.4440961090        4.7835004055
Ga       62.3128766156        7.3646801926        3.1890020000
 N       61.6740846156        6.4440961090        4.7835004055
 N       64.2665846156        7.3646801926        3.1890020000
Ga       59.7203766156        9.2058511216        6.3780004055
Ga       62.3128766156       10.1264352053        4.7835020000
 N       61.6740846156        9.2058511216        6.3780004055
 N       64.2665846156       10.1264352053        4.7835020000
Ga       59.7203766156        6.4440961090        7.9725004055
Ga       62.3128766156        7.3646801926        6.3780020000
 N       61.6740846156        6.4440961090        7.9725004055
 N       64.2665846156        7.3646801926        6.3780020000
Ga       59.7203766156        9.2058511216        9.5670004055
Ga       62.3128766156       10.1264352053        7.9725020000
 N       61.6740846156        9.2058511216        9.5670004055
 N       64.2665846156       10.1264352053        7.9725020000
Ga       59.7203766156        6.4440961090       11.1615004055
Ga       62.3128766156        7.3646801926        9.5670020000
 N       61.6740846156        6.4440961090       11.1615004055
 N       64.2665846156        7.3646801926        9.5670020000
Ga       59.7203766156        9.2058511216       12.7560004055
Ga       62.3128766156       10.1264352053       11.1615020000
 N       61.6740846156        9.2058511216       12.7560004055
 N       64.2665846156       10.1264352053       11.1615020000
Ga       59.7203766156        6.4440961090       14.3505004055
Ga       62.3128766156        7.3646801926       12.7560020000
 N       61.6740846156        6.4440961090       14.3505004055
 N       64.2665846156        7.3646801926       12.7560020000
Ga       59.7203766156        9.2058511216       15.9450004055
Ga       62.3128766156       10.1264352053       14.3505020000
 N       61.6740846156        9.2058511216       15.9450004055
 N       64.2665846156       10.1264352053       14.3505020000
Ga       59.7203766156        6.4440961090       17.5395004055
Ga       62.3128766156        7.3646801926       15.9450020000
 N       61.6740846156        6.4440961090       17.5395004055
 N       64.2665846156        7.3646801926       15.9450020000
Ga       59.7203766156        9.2058511216       19.1340004055
Ga       62.3128766156       10.1264352053       17.5395020000
 N       61.6740846156        9.2058511216       19.1340004055
 N       64.2665846156       10.1264352053       17.5395020000
Ga       59.7203766156       11.9676061343        1.5945004055
Ga       62.3128766156       12.8881902180        0.0000020000
 N       61.6740846156       11.9676061343        1.5945004055
 N       64.2665846156       12.8881902180        0.0000020000
Ga       59.7203766156       14.7293611470        3.1890004055
Ga       62.3128766156       15.6499452306        1.5945020000
 N       61.6740846156       14.7293611470        3.1890004055
 N       64.2665846156       15.6499452306        1.5945020000
Ga       59.7203766156       11.9676061343        4.7835004055
Ga       62.3128766156       12.8881902180        3.1890020000
 N       61.6740846156       11.9676061343        4.7835004055
 N       64.2665846156       12.8881902180        3.1890020000
Ga       59.7203766156       14.7293611470        6.3780004055
Ga       62.3128766156       15.6499452306        4.7835020000
 N       61.6740846156       14.7293611470        6.3780004055
 N       64.2665846156       15.6499452306        4.7835020000
Ga       59.7203766156       11.9676061343        7.9725004055
Ga       62.3128766156       12.8881902180        6.3780020000
 N       61.6740846156       11.9676061343        7.9725004055
 N       64.2665846156       12.8881902180        6.3780020000
Ga       59.7203766156       14.7293611470        9.5670004055
Ga       62.3128766156       15.6499452306        7.9725020000
 N       61.6740846156       14.7293611470        9.5670004055
 N       64.2665846156       15.6499452306        7.9725020000
Ga       59.7203766156       11.9676061343       11.1615004055
Ga       62.3128766156       12.8881902180        9.5670020000
 N       61.6740846156       11.9676061343       11.1615004055
 N       64.2665846156       12.8881902180        9.5670020000
Ga       59.7203766156       14.7293611470       12.7560004055
Ga       62.3128766156       15.6499452306       11.1615020000
 N       61.6740846156       14.7293611470       12.7560004055
 N       64.2665846156       15.6499452306       11.1615020000
Ga       59.7203766156       11.9676061343       14.3505004055
Ga       62.3128766156       12.8881902180       12.7560020000
 N       61.6740846156       11.9676061343       14.3505004055
 N       64.2665846156       12.8881902180       12.7560020000
Ga       59.7203766156       14.7293611470       15.9450004055
Ga       62.3128766156       15.6499452306       14.3505020000
 N       61.6740846156       14.7293611470       15.9450004055
 N       64.2665846156       15.6499452306       14.3505020000
Ga       59.7203766156       11.9676061343       17.5395004055
Ga       62.3128766156       12.8881902180       15.9450020000
 N       61.6740846156       11.9676061343       17.5395004055
 N       64.2665846156       12.8881902180       15.9450020000
Ga       59.7203766156       14.7293611470       19.1340004055
Ga       62.3128766156       15.6499452306       17.5395020000
 N       61.6740846156       14.7293611470       19.1340004055
 N       64.2665846156       15.6499452306       17.5395020000
Ga       64.9053766156        0.9205860836        1.5945004055
Ga       67.4978766156        1.8411701673        0.0000020000
 N       66.8590846156        0.9205860836        1.5945004055
 N       69.4515846156        1.8411701673        0.0000020000
Ga       64.9053766156        3.6823410963        3.1890004055
Ga       67.4978766156        4.6029251799        1.5945020000
 N       66.8590846156        3.6823410963        3.1890004055
 N       69.4515846156        4.6029251799        1.5945020000
Ga       64.9053766156        0.9205860836        4.7835004055
Ga       67.4978766156        1.8411701673        3.1890020000
 N       66.8590846156        0.9205860836        4.7835004055
 N       69.4515846156        1.8411701673        3.1890020000
Ga       64.9053766156        3.6823410963        6.3780004055
Ga       67.4978766156        4.6029251799        4.7835020000
 N       66.8590846156        3.6823410963        6.3780004055
 N       69.4515846156        4.6029251799        4.7835020000
Ga       64.9053766156        0.9205860836        7.9725004055
Ga       67.4978766156        1.8411701673        6.3780020000
 N       66.8590846156        0.9205860836        7.9725004055
 N       69.4515846156        1.8411701673        6.3780020000
Ga       64.9053766156        3.6823410963        9.5670004055
Ga       67.4978766156        4.6029251799        7.9725020000
 N       66.8590846156        3.6823410963        9.5670004055
 N       69.4515846156        4.6029251799        7.9725020000
Ga       64.9053766156        0.9205860836       11.1615004055
Ga       67.4978766156        1.8411701673        9.5670020000
 N       66.8590846156        0.9205860836       11.1615004055
 N       69.4515846156        1.8411701673        9.5670020000
Ga       64.9053766156        3.6823410963       12.7560004055
Ga       67.4978766156        4.6029251799       11.1615020000
 N       66.8590846156        3.6823410963       12.7560004055
 N       69.4515846156        4.6029251799       11.1615020000
Ga       64.9053766156        0.9205860836       14.3505004055
Ga       67.4978766156        1.8411701673       12.7560020000
 N       66.8590846156        0.9205860836       14.3505004055
 N       69.4515846156        1.8411701673       12.7560020000
Ga       64.9053766156        3.6823410963       15.9450004055
Ga       67.4978766156        4.6029251799       14.3505020000
 N       66.8590846156        3.6823410963       15.9450004055
 N       69.4515846156        4.6029251799       14.3505020000
Ga       64.9053766156        0.9205860836       17.5395004055
Ga       67.4978766156        1.8411701673       15.9450020000
 N       66.8590846156        0.9205860836       17.5395004055
 N       69.4515846156        1.8411701673       15.9450020000
Ga       64.9053766156        3.6823410963       19.1340004055
Ga       67.4978766156        4.6029251799       17.5395020000
 N       66.8590846156        3.6823410963       19.1340004055
 N       69.4515846156        4.6029251799       17.5395020000
Ga       64.9053766156        6.4440961090        1.5945004055
Ga       67.4978766156        7.3646801926        0.0000020000
 N       66.8590846156        6.4440961090        1.5945004055
 N       69.4515846156        7.3646801926        0.0000020000
Ga       64.9053766156        9.2058511216        3.1890004055
Ga       67.4978766156       10.1264352053        1.5945020000
 N       66.8590846156        9.2058511216        3.1890004055
 N       69.4515846156       10.1264352053        1.5945020000
Ga       64.9053766156        6.4440961090        4.7835004055
Ga       67.4978766156        7.3646801926        3.1890020000
 N       66.8590846156        6.4440961090        4.7835004055
 N       69.4515846156        7.3646801926        3.1890020000
Ga       64.9053766156        9.2058511216        6.3780004055
Ga       67.4978766156       10.1264352053        4.7835020000
 N       66.8590846156        9.2058511216        6.3780004055
 N       69.4515846156       10.1264352053        4.7835020000
Ga       64.9053766156        6.4440961090        7.9725004055
Ga       67.4978766156        7.3646801926        6.3780020000
 N       66.8590846156        6.4440961090        7.9725004055
 N       69.4515846156        7.3646801926        6.3780020000
Ga       64.9053766156        9.2058511216        9.5670004055
Ga       67.4978766156       10.1264352053        7.9725020000
 N       66.8590846156        9.2058511216        9.5670004055
 N       69.4515846156       10.1264352053        7.9725020000
Ga       64.9053766156        6.4440961090       11.1615004055
Ga       67.4978766156        7.3646801926        9.5670020000
 N       66.8590846156        6.4440961090       11.1615004055
 N       69.4515846156        7.3646801926        9.5670020000
Ga       64.9053766156        9.2058511216       12.7560004055
Ga       67.4978766156       10.1264352053       11.1615020000
 N       66.8590846156        9.2058511216       12.7560004055
 N       69.4515846156       10.1264352053       11.1615020000
Ga       64.9053766156        6.4440961090       14.3505004055
Ga       67.4978766156        7.3646801926       12.7560020000
 N       66.8590846156        6.4440961090       14.3505004055
 N       69.4515846156        7.3646801926       12.7560020000
Ga       64.9053766156        9.2058511216       15.9450004055
Ga       67.4978766156       10.1264352053       14.3505020000
 N       66.8590846156        9.2058511216       15.9450004055
 N       69.4515846156       10.1264352053       14.3505020000
Ga       64.9053766156        6.4440961090       17.5395004055
Ga       67.4978766156        7.3646801926       15.9450020000
 N       66.8590846156        6.4440961090       17.5395004055
 N       69.4515846156        7.3646801926       15.9450020000
Ga       64.9053766156        9.2058511216       19.1340004055
Ga       67.4978766156       10.1264352053       17.5395020000
 N       66.8590846156        9.2058511216       19.1340004055
 N       69.4515846156       10.1264352053       17.5395020000
Ga       64.9053766156       11.9676061343        1.5945004055
Ga       67.4978766156       12.8881902180        0.0000020000
 N       66.8590846156       11.9676061343        1.5945004055
 N       69.4515846156       12.8881902180        0.0000020000
Ga       64.9053766156       14.7293611470        3.1890004055
Ga       67.4978766156       15.6499452306        1.5945020000
 N       66.8590846156       14.7293611470        3.1890004055
 N       69.4515846156       15.6499452306        1.5945020000
Ga       64.9053766156       11.9676061343        4.7835004055
Ga       67.4978766156       12.8881902180        3.1890020000
 N       66.8590846156       11.9676061343        4.7835004055
 N       69.4515846156       12.8881902180        3.1890020000
Ga       64.9053766156       14.7293611470        6.3780004055
Ga       67.4978766156       15.6499452306        4.7835020000
 N       66.8590846156       14.7293611470        6.3780004055
 N       69.4515846156       15.6499452306        4.7835020000
Ga       64.9053766156       11.9676061343        7.9725004055
Ga       67.4978766156       12.8881902180        6.3780020000
 N       66.8590846156       11.9676061343        7.9725004055
 N       69.4515846156       12.8881902180        6.3780020000
Ga       64.9053766156       14.7293611470        9.5670004055
Ga       67.4978766156       15.6499452306        7.9725020000
 N       66.8590846156       14.7293611470        9.5670004055
 N       69.4515846156       15.6499452306        7.9725020000
Ga       64.9053766156       11.9676061343       11.1615004055
Ga       67.4978766156       12.8881902180        9.5670020000
 N       66.8590846156       11.9676061343       11.1615004055
 N       69.4515846156       12.8881902180        9.5670020000
Ga       64.9053766156       14.7293611470       12.7560004055
Ga       67.4978766156       15.6499452306       11.1615020000
 N       66.8590846156       14.7293611470       12.7560004055
 N       69.4515846156       15.6499452306       11.1615020000
Ga       64.9053766156       11.9676061343       14.3505004055
Ga       67.4978766156       12.8881902180       12.7560020000
 N       66.8590846156       11.9676061343       14.3505004055
 N       69.4515846156       12.8881902180       12.7560020000
Ga       64.9053766156       14.7293611470       15.9450004055
Ga       67.4978766156       15.6499452306       14.3505020000
 N       66.8590846156       14.7293611470       15.9450004055
 N       69.4515846156       15.6499452306       14.3505020000
Ga       64.9053766156       11.9676061343       17.5395004055
Ga       67.4978766156       12.8881902180       15.9450020000
 N       66.8590846156       11.9676061343       17.5395004055
 N       69.4515846156       12.8881902180       15.9450020000
Ga       64.9053766156       14.7293611470       19.1340004055
Ga       67.4978766156       15.6499452306       17.5395020000
 N       66.8590846156       14.7293611470       19.1340004055
 N       69.4515846156       15.6499452306       17.5395020000
Ga       70.0903766156        0.9205860836        1.5945004055
Ga       70.0903766156        3.6823410963        3.1890004055
Ga       70.0903766156        0.9205860836        4.7835004055
Ga       70.0903766156        3.6823410963        6.3780004055
Ga       70.0903766156        0.9205860836        7.9725004055
Ga       70.0903766156        3.6823410963        9.5670004055
Ga       70.0903766156        0.9205860836       11.1615004055
Ga       70.0903766156        3.6823410963       12.7560004055
Ga       70.0903766156        0.9205860836       14.3505004055
Ga       70.0903766156        3.6823410963       15.9450004055
Ga       70.0903766156        0.9205860836       17.5395004055
Ga       70.0903766156        3.6823410963       19.1340004055
Ga       70.0903766156        6.4440961090        1.5945004055
Ga       70.0903766156        9.2058511216        3.1890004055
Ga       70.0903766156        6.4440961090        4.7835004055
Ga       70.0903766156        9.2058511216        6.3780004055
Ga       70.0903766156        6.4440961090        7.9725004055
Ga       70.0903766156        9.2058511216        9.5670004055
Ga       70.0903766156        6.4440961090       11.1615004055
Ga       70.0903766156        9.2058511216       12.7560004055
Ga       70.0903766156        6.4440961090       14.3505004055
Ga       70.0903766156        9.2058511216       15.9450004055
Ga       70.0903766156        6.4440961090       17.5395004055
Ga       70.0903766156        9.2058511216       19.1340004055
Ga       70.0903766156       11.9676061343        1.5945004055
Ga       70.0903766156       14.7293611470        3.1890004055
Ga       70.0903766156       11.9676061343        4.7835004055
Ga       70.0903766156       14.7293611470        6.3780004055
Ga       70.0903766156       11.9676061343        7.9725004055
Ga       70.0903766156       14.7293611470        9.5670004055
Ga       70.0903766156       11.9676061343       11.1615004055
Ga       70.0903766156       14.7293611470       12.7560004055
Ga       70.0903766156       11.9676061343       14.3505004055
Ga       70.0903766156       14.7293611470       15.9450004055
Ga       70.0903766156       11.9676061343       17.5395004055
Ga       70.0903766156       14.7293611470       19.1340004055
 H      -40.3923358885        1.4874382040        0.6126837327
 H      -40.3923353619       -0.2131183398        1.5945013873
 H      -40.3923353619        1.4874374451        2.5763177275
 H      -40.3923358885        4.2491932167        2.2071837327
 H      -40.3923353619        2.5486366729        3.1890013873
 H      -40.3923353619        4.2491924577        4.1708177275
 H      -40.3923358885        1.4874382040        3.8016837327
 H      -40.3923353619       -0.2131183398        4.7835013873
 H      -40.3923353619        1.4874374451        5.7653177275
 H      -40.3923358885        4.2491932167        5.3961837327
 H      -40.3923353619        2.5486366729        6.3780013873
 H      -40.3923353619        4.2491924577        7.3598177275
 H      -40.3923358885        1.4874382040        6.9906837327
 H      -40.3923353619       -0.2131183398        7.9725013873
 H      -40.3923353619        1.4874374451        8.9543177275
 H      -40.3923358885        4.2491932167        8.5851837327
 H      -40.3923353619        2.5486366729        9.5670013873
 H      -40.3923353619        4.2491924577       10.5488177275
 H      -40.3923358885        1.4874382040       10.1796837327
 H      -40.3923353619       -0.2131183398       11.1615013873
 H      -40.3923353619        1.4874374451       12.1433177275
 H      -40.3923358885        4.2491932167       11.7741837327
 H      -40.3923353619        2.5486366729       12.7560013873
 H      -40.3923353619        4.2491924577       13.7378177275
 H      -40.3923358885        1.4874382040       13.3686837327
 H      -40.3923353619       -0.2131183398       14.3505013873
 H      -40.3923353619        1.4874374451       15.3323177275
 H      -40.3923358885        4.2491932167       14.9631837327
 H      -40.3923353619        4.2491924577       16.9268177275
 H      -40.3923353619        2.5486366729       15.9450013873
 H      -40.3923358885        1.4874382040       16.5576837327
 H      -40.3923353619       -0.2131183398       17.5395013873
 H      -40.3923353619        1.4874374451       18.5213177275
 H      -40.3923358885        4.2491932167       18.1521837327
 H      -40.3923353619        2.5486366729       19.1340013873
 H      -40.3923353619        4.2491924577       20.1158177275
 H      -40.3923358885        7.0109482293        0.6126837327
 H      -40.3923353619        5.3103916855        1.5945013873
 H      -40.3923353619        7.0109474704        2.5763177275
 H      -40.3923358885        9.7727032420        2.2071837327
 H      -40.3923353619        8.0721466982        3.1890013873
 H      -40.3923353619        9.7727024831        4.1708177275
 H      -40.3923358885        7.0109482293        3.8016837327
 H      -40.3923353619        5.3103916855        4.7835013873
 H      -40.3923353619        7.0109474704        5.7653177275
 H      -40.3923358885        9.7727032420        5.3961837327
 H      -40.3923353619        8.0721466982        6.3780013873
 H      -40.3923353619        9.7727024831        7.3598177275
 H      -40.3923358885        7.0109482293        6.9906837327
 H      -40.3923353619        7.0109474704        8.9543177275
 H      -40.3923353619        5.3103916855        7.9725013873
 H      -40.3923358885        9.7727032420        8.5851837327
 H      -40.3923353619        9.7727024831       10.5488177275
 H      -40.3923353619        8.0721466982        9.5670013873
 H      -40.3923358885        7.0109482293       10.1796837327
 H      -40.3923353619        5.3103916855       11.1615013873
 H      -40.3923353619        7.0109474704       12.1433177275
 H      -40.3923358885        9.7727032420       11.7741837327
 H      -40.3923353619        8.0721466982       12.7560013873
 H      -40.3923353619        9.7727024831       13.7378177275
 H      -40.3923358885        7.0109482293       13.3686837327
 H      -40.3923353619        5.3103916855       14.3505013873
 H      -40.3923353619        7.0109474704       15.3323177275
 H      -40.3923358885        9.7727032420       14.9631837327
 H      -40.3923353619        8.0721466982       15.9450013873
 H      -40.3923353619        9.7727024831       16.9268177275
 H      -40.3923358885        7.0109482293       16.5576837327
 H      -40.3923353619        5.3103916855       17.5395013873
 H      -40.3923353619        7.0109474704       18.5213177275
 H      -40.3923358885        9.7727032420       18.1521837327
 H      -40.3923353619        9.7727024831       20.1158177275
 H      -40.3923353619        8.0721466982       19.1340013873
 H      -40.3923358885       12.5344582547        0.6126837327
 H      -40.3923353619       10.8339017109        1.5945013873
 H      -40.3923353619       12.5344574958        2.5763177275
 H      -40.3923358885       15.2962132673        2.2071837327
 H      -40.3923353619       13.5956567235        3.1890013873
 H      -40.3923353619       15.2962125084        4.1708177275
 H      -40.3923358885       12.5344582547        3.8016837327
 H      -40.3923353619       10.8339017109        4.7835013873
 H      -40.3923353619       12.5344574958        5.7653177275
 H      -40.3923358885       15.2962132673        5.3961837327
 H      -40.3923353619       13.5956567235        6.3780013873
 H      -40.3923353619       15.2962125084        7.3598177275
 H      -40.3923358885       12.5344582547        6.9906837327
 H      -40.3923353619       10.8339017109        7.9725013873
 H      -40.3923353619       12.5344574958        8.9543177275
 H      -40.3923358885       15.2962132673        8.5851837327
 H      -40.3923353619       13.5956567235        9.5670013873
 H      -40.3923353619       15.2962125084       10.5488177275
 H      -40.3923358885       12.5344582547       10.1796837327
 H      -40.3923353619       10.8339017109       11.1615013873
 H      -40.3923353619       12.5344574958       12.1433177275
 H      -40.3923358885       15.2962132673       11.7741837327
 H      -40.3923353619       13.5956567235       12.7560013873
 H      -40.3923353619       15.2962125084       13.7378177275
 H      -40.3923358885       12.5344582547       13.3686837327
 H      -40.3923353619       10.8339017109       14.3505013873
 H      -40.3923353619       12.5344574958       15.3323177275
 H      -40.3923358885       15.2962132673       14.9631837327
 H      -40.3923353619       13.5956567235       15.9450013873
 H      -40.3923353619       15.2962125084       16.9268177275
 H      -40.3923358885       12.5344582547       16.5576837327
 H      -40.3923353619       10.8339017109       17.5395013873
 H      -40.3923353619       12.5344574958       18.5213177275
 H      -40.3923358885       15.2962132673       18.1521837327
 H      -40.3923353619       15.2962125084       20.1158177275
 H      -40.3923353619       13.5956567235       19.1340013873
 H       71.2903766156        0.9205860836        1.5945004055
 H       71.2903766156        3.6823410963        3.1890004055
 H       71.2903766156        0.9205860836        4.7835004055
 H       71.2903766156        3.6823410963        6.3780004055
 H       71.2903766156        0.9205860836        7.9725004055
 H       71.2903766156        3.6823410963        9.5670004055
 H       71.2903766156        0.9205860836       11.1615004055
 H       71.2903766156        3.6823410963       12.7560004055
 H       71.2903766156        0.9205860836       14.3505004055
 H       71.2903766156        3.6823410963       15.9450004055
 H       71.2903766156        0.9205860836       17.5395004055
 H       71.2903766156        3.6823410963       19.1340004055
 H       71.2903766156        6.4440961090        1.5945004055
 H       71.2903766156        9.2058511216        3.1890004055
 H       71.2903766156        6.4440961090        4.7835004055
 H       71.2903766156        9.2058511216        6.3780004055
 H       71.2903766156        6.4440961090        7.9725004055
 H       71.2903766156        9.2058511216        9.5670004055
 H       71.2903766156        6.4440961090       11.1615004055
 H       71.2903766156        9.2058511216       12.7560004055
 H       71.2903766156        6.4440961090       14.3505004055
 H       71.2903766156        9.2058511216       15.9450004055
 H       71.2903766156        6.4440961090       17.5395004055
 H       71.2903766156        9.2058511216       19.1340004055
 H       71.2903766156       11.9676061343        1.5945004055
 H       71.2903766156       14.7293611470        3.1890004055
 H       71.2903766156       11.9676061343        4.7835004055
 H       71.2903766156       14.7293611470        6.3780004055
 H       71.2903766156       11.9676061343        7.9725004055
 H       71.2903766156       14.7293611470        9.5670004055
 H       71.2903766156       11.9676061343       11.1615004055
 H       71.2903766156       14.7293611470       12.7560004055
 H       71.2903766156       11.9676061343       14.3505004055
 H       71.2903766156       14.7293611470       15.9450004055
 H       71.2903766156       11.9676061343       17.5395004055
 H       71.2903766156       14.7293611470       19.1340004055
