3204

Ga      -39.9989980000        0.9205860836        1.5945004055
Ga      -37.4065415866        1.8419851469       -0.0010466502
 N      -38.0453161644        0.9213477940        1.5935047433
 N      -35.4528551348        1.8423389268       -0.0015743452
Ga      -39.9989980000        3.6823410963        3.1890004055
Ga      -37.4065562368        4.6037271524        1.5934596107
 N      -38.0453163080        3.6830785669        3.1880087681
 N      -35.4528722811        4.6041004412        1.5929427466
Ga      -39.9989980000        0.9205860836        4.7835004055
Ga      -37.4065428294        1.8419582936        3.1879569790
 N      -38.0453140548        0.9213307434        4.7825150701
 N      -35.4528603149        1.8423366695        3.1874473547
Ga      -39.9989980000        3.6823410963        6.3780004055
Ga      -37.4065643782        4.6037190995        4.7824490341
 N      -38.0453120776        3.6831016577        6.3770171569
 N      -35.4528831609        4.6041027237        4.7819577716
Ga      -39.9989980000        0.9205860836        7.9725004055
Ga      -37.4065617842        1.8419647939        6.3769750604
 N      -38.0453158604        0.9213345537        7.9715431702
 N      -35.4528690305        1.8423409501        6.3764661644
Ga      -39.9989980000        3.6823410963        9.5670004055
Ga      -37.4065519053        4.6037407860        7.9714671618
 N      -38.0453066867        3.6831160466        9.5660376901
 N      -35.4528633785        4.6041127348        7.9709810920
Ga      -39.9989980000        0.9205860836       11.1615004055
Ga      -37.4065521018        1.8419814869        9.5659853844
 N      -38.0453044958        0.9213413340       11.1605418521
 N      -35.4528616735        1.8423507538        9.5654840537
Ga      -39.9989980000        3.6823410963       12.7560004055
Ga      -37.4065267775        4.6037404326       11.1604734451
 N      -38.0453132405        3.6831119567       12.7550158478
 N      -35.4528375443        4.6041236248       11.1599771754
Ga      -39.9989980000        0.9205860836       14.3505004055
Ga      -37.4065405768        1.8419882720       12.7549752136
 N      -38.0453168132        0.9213532532       14.3495205492
 N      -35.4528470220        1.8423562812       12.7544752579
Ga      -39.9989980000        3.6823410963       15.9450004055
Ga      -37.4065353093        4.6037560589       14.3494472760
 N      -38.0453100007        3.6831261357       15.9439983977
 N      -35.4528365198        4.6041259193       14.3489595010
Ga      -39.9989980000        0.9205860836       17.5395004055
Ga      -37.4065374144        1.8420002900       15.9439436966
 N      -38.0452983283        0.9213661422       17.5385029283
 N      -35.4528367791        1.8423585968       15.9434554537
Ga      -39.9989980000        3.6823410963       19.1340004055
Ga      -37.4065400512        4.6037493922       17.5384422611
 N      -38.0453098578        3.6831132569       19.1330071969
 N      -35.4528531151        4.6041199347       17.5379442736
Ga      -39.9989980000        6.4440961090        1.5945004055
Ga      -37.4065466482        7.3654886110       -0.0010668304
 N      -38.0453144311        6.4448554926        1.5934990441
 N      -35.4528517216        7.3658865866       -0.0015567973
Ga      -39.9989980000        9.2058511216        3.1890004055
Ga      -37.4065308567       10.1272314278        1.5934200283
 N      -38.0453032617        9.2066175446        3.1879849677
 N      -35.4528348565       10.1276123891        1.5929439462
Ga      -39.9989980000        6.4440961090        4.7835004055
Ga      -37.4065384983        7.3654888069        3.1879385416
 N      -38.0453105667        6.4448481778        4.7824925633
 N      -35.4528492588        7.3658664528        3.1874397921
Ga      -39.9989980000        9.2058511216        6.3780004055
Ga      -37.4065388322       10.1272506000        4.7824356168
 N      -38.0453134812        9.2066272266        6.3769952534
 N      -35.4528485641       10.1276216961        4.7819540524
Ga      -39.9989980000        6.4440961090        7.9725004055
Ga      -37.4065763399        7.3654935725        6.3769390942
 N      -38.0453166996        6.4448751583        7.9715079828
 N      -35.4528870636        7.3658658229        6.3764580197
Ga      -39.9989980000        9.2058511216        9.5670004055
Ga      -37.4065468227       10.1272438451        7.9714510961
 N      -38.0453041980        9.2066310111        9.5660287036
 N      -35.4528543674       10.1276237882        7.9709683651
Ga      -39.9989980000        6.4440961090       11.1615004055
Ga      -37.4065347219        7.3655005299        9.5659530988
 N      -38.0453084437        6.4448633138       11.1605125822
 N      -35.4528414179        7.3658820828        9.5654751608
Ga      -39.9989980000        9.2058511216       12.7560004055
Ga      -37.4065019009       10.1272531398       11.1604773650
 N      -38.0453012264        9.2066221268       12.7550256476
 N      -35.4528107201       10.1276243793       11.1599881956
Ga      -39.9989980000        6.4440961090       14.3505004055
Ga      -37.4065251048        7.3654936338       12.7549614520
 N      -38.0453158939        6.4448737197       14.3495132384
 N      -35.4528293629        7.3658819144       12.7544767159
Ga      -39.9989980000        9.2058511216       15.9450004055
Ga      -37.4065192823       10.1272560099       14.3494632319
 N      -38.0453161809        9.2066221046       15.9440000068
 N      -35.4528165867       10.1276259690       14.3489659440
Ga      -39.9989980000        6.4440961090       17.5395004055
Ga      -37.4065245709        7.3655107584       15.9439368189
 N      -38.0453061645        6.4448729216       17.5384800429
 N      -35.4528280430        7.3658890196       15.9434430284
Ga      -39.9989980000        9.2058511216       19.1340004055
Ga      -37.4065346150       10.1272452142       17.5384315793
 N      -38.0453147840        9.2066122771       19.1329843382
 N      -35.4528362672       10.1276238517       17.5379392315
Ga      -39.9989980000       11.9676061343        1.5945004055
Ga      -37.4065410181       12.8889977700       -0.0010627602
 N      -38.0453042548       11.9683550171        1.5934968903
 N      -35.4528326524       12.8893563415       -0.0015578077
Ga      -39.9989980000       14.7293611470        3.1890004055
Ga      -37.4065372672       15.6507537788        1.5934423321
 N      -38.0453142117       14.7301159887        3.1880009869
 N      -35.4528442512       15.6511038415        1.5929273111
Ga      -39.9989980000       11.9676061343        4.7835004055
Ga      -37.4065384097       12.8889899124        3.1879467614
 N      -38.0453116266       11.9683686142        4.7825114886
 N      -35.4528317660       12.8893650056        3.1874427458
Ga      -39.9989980000       14.7293611470        6.3780004055
Ga      -37.4065460450       15.6507366968        4.7824527146
 N      -38.0453093090       14.7301063706        6.3770136417
 N      -35.4528632273       15.6511118112        4.7819545074
Ga      -39.9989980000       11.9676061343        7.9725004055
Ga      -37.4065321091       12.8889823448        6.3769589724
 N      -38.0453057675       11.9683712399        7.9715245944
 N      -35.4528398059       12.8893658828        6.3764672606
Ga      -39.9989980000       14.7293611470        9.5670004055
Ga      -37.4065486715       15.6507354507        7.9714704798
 N      -38.0452999668       14.7301080140        9.5660426275
 N      -35.4528583097       15.6511305124        7.9709846811
Ga      -39.9989980000       11.9676061343       11.1615004055
Ga      -37.4065255391       12.8889843070        9.5659782857
 N      -38.0452986693       11.9683698759       11.1605417612
 N      -35.4528283148       12.8893762625        9.5654897543
Ga      -39.9989980000       14.7293611470       12.7560004055
Ga      -37.4065186842       15.6507509104       11.1604817647
 N      -38.0453040673       14.7301353706       12.7550387110
 N      -35.4528256466       15.6511290467       11.1599777155
Ga      -39.9989980000       11.9676061343       14.3505004055
Ga      -37.4065281087       12.8890089198       12.7549745216
 N      -38.0453106260       11.9683757630       14.3495105687
 N      -35.4528229160       12.8893712026       12.7544723247
Ga      -39.9989980000       14.7293611470       15.9450004055
Ga      -37.4065310001       15.6507649095       14.3494742017
 N      -38.0453095751       14.7301220042       15.9440124112
 N      -35.4528295963       15.6511254430       14.3489518140
Ga      -39.9989980000       11.9676061343       17.5395004055
Ga      -37.4065202898       12.8890030986       15.9439445949
 N      -38.0453098959       11.9683738489       17.5384941012
 N      -35.4528170755       12.8893751049       15.9434498419
Ga      -39.9989980000       14.7293611470       19.1340004055
Ga      -37.4065471420       15.6507608514       17.5384436527
 N      -38.0453053906       14.7301249629       19.1329988786
 N      -35.4528403314       15.6511249120       17.5379392962
Ga      -34.8141128146        0.9217919777        1.5928720947
Ga      -32.2216142326        1.8427559601       -0.0022019088
 N      -32.8604137515        0.9221399154        1.5923685846
 N      -30.2679144942        1.8431062364       -0.0027203423
Ga      -34.8141212289        3.6835587762        3.1873888657
Ga      -32.2216589254        4.6045357421        1.5923057053
 N      -32.8604336883        3.6839229893        3.1868718668
 N      -30.2679621541        4.6048633645        1.5917823048
Ga      -34.8141095650        0.9217915185        4.7819003309
Ga      -32.2216651779        1.8427850523        3.1868185431
 N      -32.8604210248        0.9221662977        4.7813931131
 N      -30.2679734344        1.8431151895        3.1862956437
Ga      -34.8141222328        3.6835596916        6.3764116564
Ga      -32.2216836659        4.6045507857        4.7813227030
 N      -32.8604322945        3.6839364206        6.3758978677
 N      -30.2679885013        4.6048832712        4.7807949423
Ga      -34.8141048928        0.9218131891        7.9709169635
Ga      -32.2216726540        1.8428060566        6.3758283212
 N      -32.8604063000        0.9221770917        7.9703965783
 N      -30.2679829216        1.8431436234        6.3753124730
Ga      -34.8140858689        3.6835609374        9.5654256356
Ga      -32.2216489193        4.6045634190        7.9703427353
 N      -32.8603952287        3.6839374536        9.5649138438
 N      -30.2679436199        4.6048929815        7.9698170930
Ga      -34.8140693586        0.9218105842       11.1599179078
Ga      -32.2216136477        1.8428069041        9.5648351270
 N      -32.8603691987        0.9221640815       11.1593977715
 N      -30.2679135213        1.8431482112        9.5643004584
Ga      -34.8140501511        3.6835686846       12.7544106232
Ga      -32.2215933445        4.6045691911       11.1593394353
 N      -32.8603515306        3.6839243746       12.7538878160
 N      -30.2678934578        4.6048963087       11.1588062288
Ga      -34.8140589204        0.9218053442       14.3489078638
Ga      -32.2215725515        1.8427960620       12.7538225879
 N      -32.8603546742        0.9221495936       14.3483700834
 N      -30.2678714520        1.8431398961       12.7532896702
Ga      -34.8140624847        3.6835712566       15.9434010411
Ga      -32.2215681635        4.6045588446       14.3483150647
 N      -32.8603565718        3.6839149775       15.9428721432
 N      -30.2678626016        4.6048834495       14.3477891036
Ga      -34.8140807910        0.9218000153       17.5378826160
Ga      -32.2215887109        1.8427748434       15.9428069631
 N      -32.8603788844        0.9221399467       17.5373547818
 N      -30.2678839738        1.8431032356       15.9422827971
Ga      -34.8141014483        3.6835524892       19.1323796581
Ga      -32.2215935378        4.6045366189       17.5373150798
 N      -32.8603949228        3.6838925767       19.1318599765
 N      -30.2678960519        4.6048537006       17.5367786160
Ga      -34.8141112790        6.4453141211        1.5928768957
Ga      -32.2216082465        7.3663029470       -0.0021774181
 N      -32.8604132100        6.4456733726        1.5923740417
 N      -30.2679123897        7.3666177544       -0.0027034352
Ga      -34.8140847231        9.2070792243        3.1873890543
Ga      -32.2215986950       10.1280618324        1.5923395780
 N      -32.8603937650        9.2074368308        3.1868932657
 N      -30.2679155205       10.1283948447        1.5917999428
Ga      -34.8141228496        6.4453236918        4.7818950608
Ga      -32.2216591583        7.3662941296        3.1868300622
 N      -32.8604305690        6.4456888183        4.7814011189
 N      -30.2679561592        7.3666305606        3.1863026261
Ga      -34.8141022549        9.2070790329        6.3764087055
Ga      -32.2216359266       10.1280528500        4.7813445894
 N      -32.8604078093        9.2074433264        6.3759109229
 N      -30.2679387821       10.1283910794        4.7808190830
Ga      -34.8141021886        6.4453368566        7.9709115855
Ga      -32.2216500357        7.3663127703        6.3758433441
 N      -32.8604101395        6.4456959667        7.9704130645
 N      -30.2679480774        7.3666426541        6.3753129305
Ga      -34.8140686878        9.2070933485        9.5654133306
Ga      -32.2216091499       10.1280647104        7.9703495889
 N      -32.8603669481        9.2074403689        9.5649229226
 N      -30.2678966242       10.1284044795        7.9698326621
Ga      -34.8140524497        6.4453430371       11.1599213322
Ga      -32.2216080167        7.3663054718        9.5648533912
 N      -32.8603552750        6.4456969435       11.1594222402
 N      -30.2679033624        7.3666530994        9.5643302274
Ga      -34.8140139659        9.2070806402       12.7544239775
Ga      -32.2215585175       10.1280631765       11.1593606198
 N      -32.8603172221        9.2074383719       12.7539195973
 N      -30.2678556409       10.1284036573       11.1588363061
Ga      -34.8140342405        6.4453353301       14.3489018190
Ga      -32.2215436183        7.3663196650       12.7538394560
 N      -32.8603349607        6.4456945398       14.3483808539
 N      -30.2678504341        7.3666507312       12.7533075409
Ga      -34.8140197807        9.2070896839       15.9433955746
Ga      -32.2215276497       10.1280617522       14.3483408632
 N      -32.8603180690        9.2074361473       15.9428869991
 N      -30.2678337584       10.1283960151       14.3477968868
Ga      -34.8140735643        6.4453314533       17.5378887956
Ga      -32.2215549466        7.3663040303       15.9428226302
 N      -32.8603711210        6.4456761742       17.5373750403
 N      -30.2678574671        7.3666285815       15.9423051726
Ga      -34.8140463632        9.2070941997       19.1323843524
Ga      -32.2215425965       10.1280605588       17.5373212119
 N      -32.8603476690        9.2074501879       19.1318792216
 N      -30.2678567687       10.1283795813       17.5367923722
Ga      -34.8140582717       11.9688161853        1.5928835312
Ga      -32.2215678418       12.8897929895       -0.0021901962
 N      -32.8603594688       11.9691882987        1.5923730215
 N      -30.2678681300       12.8901453080       -0.0026980573
Ga      -34.8140784508       14.7305873287        3.1873878947
Ga      -32.2216169487       15.6515429176        1.5923087941
 N      -32.8603795805       14.7309484658        3.1868874227
 N      -30.2679254430       15.6518953900        1.5917892185
Ga      -34.8140645582       11.9688372257        4.7818954712
Ga      -32.2216202944       12.8898111463        3.1868223042
 N      -32.8603730136       11.9691952402        4.7813929713
 N      -30.2679338166       12.8901442720        3.1863031531
Ga      -34.8140983812       14.7305931291        6.3764103333
Ga      -32.2216368328       15.6515774251        4.7813262256
 N      -32.8604050471       14.7309539711        6.3758817980
 N      -30.2679527316       15.6519008266        4.7807968656
Ga      -34.8140809147       11.9688349792        7.9709242183
Ga      -32.2216157180       12.8898223845        6.3758389912
 N      -32.8603767914       11.9691968927        7.9704098019
 N      -30.2679195750       12.8901455749        6.3753136253
Ga      -34.8140720632       14.7305889729        9.5654167979
Ga      -32.2216253023       15.6515711091        7.9703287384
 N      -32.8603729050       14.7309499615        9.5648995987
 N      -30.2679243782       15.6519092252        7.9698108640
Ga      -34.8140378379       11.9688341534       11.1599207290
Ga      -32.2215855314       12.8898212515        9.5648452824
 N      -32.8603355142       11.9691913687       11.1594097479
 N      -30.2678800362       12.8901499552        9.5643106217
Ga      -34.8140516662       14.7305746209       12.7544041472
Ga      -32.2215913314       15.6515616075       11.1593420484
 N      -32.8603514058       14.7309163394       12.7538894056
 N      -30.2678866946       15.6519096893       11.1588025723
Ga      -34.8140203909       11.9688298622       14.3489058667
Ga      -32.2215431677       12.8898132765       12.7538341296
 N      -32.8603105213       11.9691793457       14.3483878797
 N      -30.2678428066       12.8901574512       12.7532984321
Ga      -34.8140411921       14.7305859726       15.9433866166
Ga      -32.2215684162       15.6515493626       14.3483065109
 N      -32.8603391114       14.7309190130       15.9428634485
 N      -30.2678652037       15.6518874836       14.3477887693
Ga      -34.8140363222       11.9688275671       17.5378829294
Ga      -32.2215392954       12.8897983213       15.9428195269
 N      -32.8603360536       11.9691752204       17.5373665260
 N      -30.2678441889       12.8901372442       15.9422930440
Ga      -34.8140517504       14.7305662548       19.1323720674
Ga      -32.2215757463       15.6515498276       17.5372998947
 N      -32.8603477663       14.7309203027       19.1318585328
 N      -30.2678752774       15.6518848602       17.5367957676
Ga      -29.6291688626        0.9225757939        1.5917322467
Ga      -27.0366819678        1.8435249670       -0.0033767393
 N      -27.6754719558        0.9229097824        1.5911887667
 N      -25.0829693841        1.8438274822       -0.0039565038
Ga      -29.6292107303        3.6843318655        3.1862370340
Ga      -27.0367158705        4.6052651387        1.5911232197
 N      -27.6755080656        3.6846642937        3.1856993865
 N      -25.0830121969        4.6055745681        1.5905454030
Ga      -29.6291956658        0.9225930147        4.7807534507
Ga      -27.0367235235        1.8435332376        3.1856297461
 N      -27.6754972848        0.9229167468        4.7802034044
 N      -25.0830185931        1.8438457503        3.1850474782
Ga      -29.6292118473        3.6843515475        6.3752325524
Ga      -27.0367274111        4.6052797504        4.7801382666
 N      -27.6755031170        3.6846608226        6.3747028405
 N      -25.0830178771        4.6055866045        4.7795494775
Ga      -29.6291554691        0.9225982005        7.9697380391
Ga      -27.0367130494        1.8435365061        6.3746368673
 N      -27.6754560385        0.9229176641        7.9692075683
 N      -25.0830112103        1.8438524642        6.3740575335
Ga      -29.6291363852        3.6843537510        9.5642455518
Ga      -27.0366738490        4.6052821653        7.9691311575
 N      -27.6754402986        3.6846679371        9.5637035485
 N      -25.0829597562        4.6056021285        7.9685583579
Ga      -29.6291161289        0.9225918047       11.1587276483
Ga      -27.0366487470        1.8435456310        9.5636295472
 N      -27.6754082717        0.9229148216       11.1581895667
 N      -25.0829533440        1.8438613435        9.5630695311
Ga      -29.6290942551        3.6843418151       12.7532244796
Ga      -27.0366191628        4.6052795851       11.1581308361
 N      -27.6753979179        3.6846512719       12.7526895628
 N      -25.0829222834        4.6055994266       11.1575613901
Ga      -29.6290931662        0.9225708047       14.3477149077
Ga      -27.0365993337        1.8435316914       12.7526138298
 N      -27.6753779749        0.9229034048       14.3471736173
 N      -25.0829008926        1.8438391515       12.7520638287
Ga      -29.6290906835        3.6843065626       15.9422167131
Ga      -27.0366074095        4.6052539082       14.3471267670
 N      -27.6753907013        3.6846322004       15.9416825590
 N      -25.0829119444        4.6055759360       14.3465438536
Ga      -29.6291124804        0.9225631401       17.5367199049
Ga      -27.0366080919        1.8435121386       15.9416208722
 N      -27.6754079473        0.9228842709       17.5361771352
 N      -25.0829051163        1.8438306029       15.9410393653
Ga      -29.6291583972        3.6843172529       19.1312290885
Ga      -27.0366514238        4.6052551870       17.5361199003
 N      -27.6754653158        3.6846519548       19.1306811332
 N      -25.0829430746        4.6055773551       17.5355359140
Ga      -29.6291830470        6.4460726279        1.5917469783
Ga      -27.0366859692        7.3669859577       -0.0033739114
 N      -27.6754861671        6.4463914053        1.5911994618
 N      -25.0829914461        7.3673155510       -0.0039744465
Ga      -29.6291772294        9.2078441555        3.1862469043
Ga      -27.0366939983       10.1287724852        1.5911254414
 N      -27.6754737359        9.2081544638        3.1857006606
 N      -25.0829990809       10.1290915928        1.5905387678
Ga      -29.6291959992        6.4460841078        4.7807455671
Ga      -27.0367176489        7.3670097467        3.1856398009
 N      -27.6754967678        6.4464057284        4.7802123677
 N      -25.0830157303        7.3673286036        3.1850449036
Ga      -29.6291526851        9.2078495898        6.3752598352
Ga      -27.0366960112       10.1287888572        4.7801417967
 N      -27.6754504839        9.2081659154        6.3747200250
 N      -25.0829878113       10.1291121679        4.7795516181
Ga      -29.6291514846        6.4461024041        7.9697568339
Ga      -27.0366845802        7.3670304183        6.3746333489
 N      -27.6754424200        6.4464235457        7.9692122966
 N      -25.0829784406        7.3673551402        6.3740576514
Ga      -29.6290973004        9.2078602952        9.5642744911
Ga      -27.0366401886       10.1288027031        7.9691425363
 N      -27.6753862134        9.2081839606        9.5637165537
 N      -25.0829335654       10.1291319307        7.9685582549
Ga      -29.6290888507        6.4460977288       11.1587498175
Ga      -27.0366177924        7.3670485989        9.5636357649
 N      -27.6753854039        6.4464234829       11.1582051432
 N      -25.0829098822        7.3673666845        9.5630581142
Ga      -29.6290521265        9.2078487391       12.7532474054
Ga      -27.0365756258       10.1288137163       11.1581261511
 N      -27.6753477037        9.2081787946       12.7526803603
 N      -25.0828684843       10.1291197964       11.1575431843
Ga      -29.6290693424        6.4460940840       14.3477314690
Ga      -27.0365920502        7.3670435424       12.7526309694
 N      -27.6753700341        6.4463948963       14.3471808836
 N      -25.0828973840        7.3673550420       12.7520451912
Ga      -29.6290706781        9.2078415408       15.9422280927
Ga      -27.0365679285       10.1287992767       14.3471102346
 N      -27.6753667942        9.2081667827       15.9416778138
 N      -25.0828650108       10.1291099857       14.3465416567
Ga      -29.6290968230        6.4460664045       17.5367401095
Ga      -27.0366127054        7.3670150219       15.9416202655
 N      -27.6754014304        6.4463827578       17.5361730910
 N      -25.0829123193        7.3673160194       15.9410356712
Ga      -29.6291358272        9.2078312501       19.1312437330
Ga      -27.0366296487       10.1287774355       17.5361332762
 N      -27.6754389897        9.2081298440       19.1306887463
 N      -25.0829293693       10.1291020246       17.5355327173
Ga      -29.6291401120       11.9695963154        1.5917524630
Ga      -27.0366570584       12.8905464089       -0.0033671961
 N      -27.6754509640       11.9699125784        1.5911988195
 N      -25.0829531276       12.8908620333       -0.0039783611
Ga      -29.6291558118       14.7313534287        3.1862303762
Ga      -27.0366895848       15.6523102642        1.5911200733
 N      -27.6754587096       14.7316754953        3.1856846175
 N      -25.0829867791       15.6526230301        1.5905330785
Ga      -29.6291580978       11.9696006111        4.7807422606
Ga      -27.0366869335       12.8905402862        3.1856350004
 N      -27.6754636300       11.9699262033        4.7802056885
 N      -25.0829926798       12.8908740317        3.1850397722
Ga      -29.6291642734       14.7313596477        6.3752441007
Ga      -27.0367163603       15.6523065998        4.7801371448
 N      -27.6754706430       14.7316906431        6.3747164056
 N      -25.0830074852       15.6526357354        4.7795696135
Ga      -29.6291146476       11.9696097733        7.9697496778
Ga      -27.0366807969       12.8905639019        6.3746373229
 N      -27.6754206932       11.9699386394        7.9692132267
 N      -25.0829750534       12.8908932506        6.3740687837
Ga      -29.6291135411       14.7313618690        9.5642496295
Ga      -27.0366659357       15.6523194081        7.9691412720
 N      -27.6754072378       14.7316878762        9.5637099862
 N      -25.0829596231       15.6526385363        7.9685853104
Ga      -29.6290784699       11.9696091556       11.1587470305
Ga      -27.0365998596       12.8905654811        9.5636321903
 N      -27.6753726534       11.9699392562       11.1581959252
 N      -25.0829007495       12.8908959842        9.5630693656
Ga      -29.6290760625       14.7313635141       12.7532244277
Ga      -27.0366029398       15.6523201953       11.1581276201
 N      -27.6753637770       14.7316937782       12.7526906921
 N      -25.0828978861       15.6526378392       11.1575760020
Ga      -29.6290579611       11.9696006995       14.3477241176
Ga      -27.0365510492       12.8905638069       12.7526172849
 N      -27.6753476579       11.9699389318       14.3471794109
 N      -25.0828449219       12.8908736329       12.7520530813
Ga      -29.6290697283       14.7313480307       15.9422318604
Ga      -27.0365655060       15.6523092628       14.3471279481
 N      -27.6753637712       14.7316708307       15.9416795037
 N      -25.0828611322       15.6526196759       14.3465425102
Ga      -29.6290901234       11.9695873676       17.5367386847
Ga      -27.0365726951       12.8905478300       15.9416247125
 N      -27.6753887743       11.9699199166       17.5361833577
 N      -25.0828727487       12.8908763003       15.9410323870
Ga      -29.6291187450       14.7313604491       19.1312408737
Ga      -27.0366254466       15.6522861605       17.5361241402
 N      -27.6754233580       14.7316783121       19.1306849493
 N      -25.0829200122       15.6526101713       17.5355204938
Ga      -24.4442143441        0.9232940245        1.5904893459
Ga      -21.8517061618        1.8442553491       -0.0047173013
 N      -22.4905129221        0.9236255014        1.5898498564
 N      -19.8979975547        1.8446511531       -0.0054038583
Ga      -24.4442300006        3.6850434791        3.1849752914
Ga      -21.8517344006        4.6059992723        1.5897650696
 N      -22.4905297797        3.6853713319        3.1843380182
 N      -19.8980201166        4.6063900288        1.5890995843
Ga      -24.4442440080        0.9233158728        4.7794851999
Ga      -21.8517547407        1.8442489379        3.1842794093
 N      -22.4905397082        0.9236357575        4.7788579993
 N      -19.8980484415        1.8446562135        3.1836180471
Ga      -24.4442030489        3.6850457596        6.3739827371
Ga      -21.8517612841        4.6060036105        4.7787597162
 N      -22.4905038437        3.6853826511        6.3733538468
 N      -19.8980559495        4.6063865369        4.7781149087
Ga      -24.4441973740        0.9233209360        7.9684899462
Ga      -21.8517354346        1.8442533067        6.3732856480
 N      -22.4904883630        0.9236539249        7.9678923647
 N      -19.8980321144        1.8446505451        6.3726646493
Ga      -24.4441604773        3.6850545399        9.5629865429
Ga      -21.8517154790        4.6060065904        7.9677841262
 N      -22.4904662327        3.6853918492        9.5623771291
 N      -19.8980230081        4.6063850817        7.9671540612
Ga      -24.4441219128        0.9233158106       11.1574901497
Ga      -21.8516566451        1.8442719460        9.5623144979
 N      -22.4904172733        0.9236550146       11.1568854164
 N      -19.8979569556        1.8446473850        9.5616976193
Ga      -24.4441222199        3.6850410547       12.7519804043
Ga      -21.8516508010        4.6060124266       11.1568009267
 N      -22.4904259896        3.6853931999       12.7513735592
 N      -19.8979564778        4.6063879287       11.1561865045
Ga      -24.4440921579        0.9232919646       14.3464824052
Ga      -21.8516155926        1.8442739107       12.7513061014
 N      -22.4903956023        0.9236351665       14.3458670916
 N      -19.8979057236        1.8446580090       12.7506812543
Ga      -24.4441469648        3.6850339376       15.9409711997
Ga      -21.8516293494        4.6060102758       14.3458007724
 N      -22.4904514003        3.6853790026       15.9403524441
 N      -19.8979197492        4.6063918247       14.3451677988
Ga      -24.4441379199        0.9232895151       17.5354741670
Ga      -21.8516424806        1.8442694943       15.9402856163
 N      -22.4904400458        0.9236459672       17.5348455486
 N      -19.8979357506        1.8446622612       15.9396369312
Ga      -24.4442091041        3.6850379002       19.1299765303
Ga      -21.8516771742        4.6060053831       17.5347725098
 N      -22.4905010928        3.6853772145       19.1293356590
 N      -19.8979621548        4.6063973275       17.5341077291
Ga      -24.4442278672        6.4467826686        1.5904649322
Ga      -21.8517020952        7.3677572167       -0.0047422426
 N      -22.4905186840        6.4471345548        1.5898287811
 N      -19.8979913819        7.3681324641       -0.0053923657
Ga      -24.4442247394        9.2085436443        3.1849707094
Ga      -21.8517195221       10.1294965439        1.5897629897
 N      -22.4905186063        9.2088801762        3.1843298179
 N      -19.8980192082       10.1298741969        1.5890985672
Ga      -24.4442428135        6.4467951113        4.7794803443
Ga      -21.8517457156        7.3677491693        3.1842678156
 N      -22.4905450611        6.4471286955        4.7788401371
 N      -19.8980356272        7.3681300716        3.1835969329
Ga      -24.4441918586        9.2085685697        6.3739848570
Ga      -21.8517571924       10.1295223799        4.7787484750
 N      -22.4904876139        9.2088960295        6.3733374234
 N      -19.8980594659       10.1298871742        4.7781130527
Ga      -24.4441784063        6.4468103742        7.9684844222
Ga      -21.8517293228        7.3677494729        6.3732579758
 N      -22.4904797127        6.4471400026        7.9678518891
 N      -19.8980169267        7.3681225858        6.3726189838
Ga      -24.4441203832        9.2085737432        9.5629690840
Ga      -21.8516908784       10.1295297487        7.9677659939
 N      -22.4904223484        9.2089133437        9.5623598693
 N      -19.8979975816       10.1299065444        7.9671522619
Ga      -24.4441231420        6.4468024006       11.1574819934
Ga      -21.8516709988        7.3677717009        9.5622781801
 N      -22.4904269625        6.4471363767       11.1568600216
 N      -19.8979622352        7.3681331162        9.5616546901
Ga      -24.4440970366        9.2085586741       12.7519730928
Ga      -21.8516178531       10.1295312883       11.1567886947
 N      -22.4903969618        9.2089008743       12.7513690933
 N      -19.8979183008       10.1299261185       11.1561613608
Ga      -24.4441335451        6.4467818362       14.3464641716
Ga      -21.8516328647        7.3677608107       12.7512900997
 N      -22.4904273558        6.4471332796       14.3458618918
 N      -19.8979231087        7.3681490236       12.7506613488
Ga      -24.4441366473        9.2085290352       15.9409733892
Ga      -21.8516121990       10.1295200482       14.3458041277
 N      -22.4904246147        9.2088733829       15.9403557525
 N      -19.8979125212       10.1299138490       14.3451573983
Ga      -24.4441797729        6.4467780552       17.5354721658
Ga      -21.8516461895        7.3677448793       15.9402987113
 N      -22.4904823997        6.4471220950       17.5348490890
 N      -19.8979336043        7.3681490983       15.9396395412
Ga      -24.4441997012        9.2085313808       19.1299708450
Ga      -21.8516614862       10.1295117914       17.5347815713
 N      -22.4904892462        9.2088825665       19.1293338748
 N      -19.8979475258       10.1298942267       17.5341397217
Ga      -24.4442133942       11.9703070708        1.5904665044
Ga      -21.8516920026       12.8912706936       -0.0047183644
 N      -22.4905085345       11.9706285009        1.5898462551
 N      -19.8979909572       12.8916479885       -0.0053767965
Ga      -24.4442324489       14.7320906631        3.1849839328
Ga      -21.8517369142       15.6530332130        1.5897842060
 N      -22.4905330142       14.7324117707        3.1843594750
 N      -19.8980464610       15.6534185014        1.5891209700
Ga      -24.4442239638       11.9703336451        4.7794870729
Ga      -21.8517635811       12.8912807995        3.1842754072
 N      -22.4905232593       11.9706590639        4.7788613052
 N      -19.8980672803       12.8916352409        3.1836314616
Ga      -24.4441950761       14.7321060870        6.3740069896
Ga      -21.8517552738       15.6530451118        4.7787916541
 N      -22.4904909845       14.7324401990        6.3733904228
 N      -19.8980597858       15.6534200407        4.7781531394
Ga      -24.4441433321       11.9703479011        7.9684994849
Ga      -21.8517274462       12.8912992653        6.3732924987
 N      -22.4904361777       11.9706774860        7.9678965849
 N      -19.8980292526       12.8916675116        6.3726669393
Ga      -24.4441215061       14.7321003423        9.5630040500
Ga      -21.8516814522       15.6530608663        7.9678217852
 N      -22.4904150843       14.7324375548        9.5624057152
 N      -19.8979924144       15.6534374409        7.9671954911
Ga      -24.4440869572       11.9703304403       11.1574731249
Ga      -21.8516138479       12.8913199807        9.5623083445
 N      -22.4903782170       11.9706734710       11.1568635407
 N      -19.8979345692       12.8916984474        9.5616857056
Ga      -24.4440654686       14.7320777869       12.7519844559
Ga      -21.8516022950       15.6530707612       11.1568206569
 N      -22.4903675646       14.7324267897       12.7513750585
 N      -19.8978957540       15.6534474230       11.1562004562
Ga      -24.4440760196       11.9703207125       14.3464787193
Ga      -21.8515911045       12.8913009738       12.7512963351
 N      -22.4903780840       11.9706532054       14.3458548994
 N      -19.8978888456       12.8916949119       12.7506758025
Ga      -24.4440838896       14.7320727575       15.9409648414
Ga      -21.8515935334       15.6530442158       14.3457988277
 N      -22.4903901658       14.7324160780       15.9403593356
 N      -19.8978887292       15.6534402987       14.3451683501
Ga      -24.4441351595       11.9703135285       17.5354589190
Ga      -21.8516284371       12.8912835533       15.9402926353
 N      -22.4904341352       11.9706399088       17.5348492202
 N      -19.8979138563       12.8916699333       15.9396513814
Ga      -24.4441683480       14.7320709297       19.1299652473
Ga      -21.8516567799       15.6530518350       17.5347867818
 N      -22.4904709868       14.7324054308       19.1293488459
 N      -19.8979572821       15.6534261703       17.5341175797
Ga      -19.2592773075        0.9241142144        1.5890336767
Ga      -16.6667396797        1.8451821238       -0.0062280866
 N      -17.3055879943        0.9245423093        1.5883518207
 N      -14.7130431925        1.8456998176       -0.0069460505
Ga      -19.2592823255        3.6858687289        3.1835362170
Ga      -16.6667486491        4.6069227092        1.5882913855
 N      -17.3055906019        3.6863063733        3.1828746808
 N      -14.7130520953        4.6074271787        1.5875968791
Ga      -19.2593155206        0.9241181382        4.7780609412
Ga      -16.6669055742        1.8451716701        3.1828243636
 N      -17.3056336498        0.9245554001        4.7774454362
 N      -14.7132451386        1.8456722143        3.1821623317
Ga      -19.2592655788        3.6858777401        6.3725611765
Ga      -16.6668240040        4.6069043005        4.7773384647
 N      -17.3055756545        3.6863059334        6.3719564633
 N      -14.7131448784        4.6073701816        4.7767243766
Ga      -19.2592256308        0.9241247117        7.9671111604
Ga      -16.6668698912        1.8451680547        6.3719134634
 N      -17.3055393742        0.9245479899        7.9665224692
 N      -14.7131862706        1.8456192811        6.3713720352
Ga      -19.2592041774        3.6858674819        9.5615959641
Ga      -16.6667856907        4.6068916802        7.9664218915
 N      -17.3055002398        3.6862713329        9.5610058363
 N      -14.7131025775        4.6072947229        7.9659152046
Ga      -19.2591178317        0.9241284333       11.1561165456
Ga      -16.6666803629        1.8451678553        9.5609541067
 N      -17.3054102570        0.9245529160       11.1555388794
 N      -14.7129627482        1.8456066877        9.5604839017
Ga      -19.2591260912        3.6858612369       12.7506047792
Ga      -16.6666503854        4.6068806620       11.1554312545
 N      -17.3054158627        3.6862640664       12.7499924931
 N      -14.7129333995        4.6072674133       11.1549273430
Ga      -19.2590840877        0.9241217473       14.3450940644
Ga      -16.6665168089        1.8451828155       12.7499379005
 N      -17.3053660682        0.9245419382       14.3444657055
 N      -14.7127780877        1.8456359121       12.7493472285
Ga      -19.2591000664        3.6858590014       15.9395703085
Ga      -16.6665608118        4.6069094669       14.3443634244
 N      -17.3053800395        3.6862821320       15.9389150616
 N      -14.7128323165        4.6073562388       14.3437017859
Ga      -19.2591576920        0.9241069897       17.5340405472
Ga      -16.6665273034        1.8451848039       15.9388339656
 N      -17.3054507992        0.9245295995       17.5333562416
 N      -14.7127891858        1.8456629250       15.9380983623
Ga      -19.2592100309        3.6858645375       19.1285296217
Ga      -16.6666016709        4.6069294457       17.5333119019
 N      -17.3054973704        3.6862995372       19.1278565803
 N      -14.7128663517        4.6074138443       17.5326005307
Ga      -19.2592237003        6.4475950252        1.5890226782
Ga      -16.6666416642        7.3686721303       -0.0062065540
 N      -17.3055173762        6.4480311230        1.5883358967
 N      -14.7129167023        7.3691436597       -0.0068964558
Ga      -19.2592713159        9.2093511373        3.1835323693
Ga      -16.6667754114       10.1304121198        1.5882782913
 N      -17.3055863408        9.2097688623        3.1828484416
 N      -14.7130761012       10.1308589363        1.5875717626
Ga      -19.2592613413        6.4475956846        4.7780243830
Ga      -16.6667715951        7.3686558607        3.1827685992
 N      -17.3055675112        6.4480308207        4.7773652215
 N      -14.7130716503        7.3691039329        3.1820989203
Ga      -19.2592687358        9.2093573292        6.3725550953
Ga      -16.6668892283       10.1303784982        4.7773133360
 N      -17.3055752751        9.2097662654        6.3719412948
 N      -14.7132158203       10.1307987579        4.7766629912
Ga      -19.2592328067        6.4475910843        7.9670592282
Ga      -16.6668236315        7.3686263558        6.3718416425
 N      -17.3055366819        6.4480120162        7.9664638823
 N      -14.7131442443        7.3690440398        6.3712533888
Ga      -19.2592031928        9.2093636571        9.5615798188
Ga      -16.6668265541       10.1304110940        7.9663973441
 N      -17.3055118850        9.2097677976        9.5609819934
 N      -14.7131501450       10.1308330182        7.9658458812
Ga      -19.2591643779        6.4475925984       11.1560897670
Ga      -16.6667509216        7.3686353585        9.5609120155
 N      -17.3054624346        6.4479976329       11.1554894149
 N      -14.7130678590        7.3690452251        9.5604006744
Ga      -19.2591416235        9.2093716155       12.7505849545
Ga      -16.6666919070       10.1304405779       11.1554046726
 N      -17.3054401824        9.2097871126       12.7499681723
 N      -14.7129866666       10.1309136242       11.1548808238
Ga      -19.2591213898        6.4475988260       14.3450860940
Ga      -16.6666491055        7.3686657659       12.7498922820
 N      -17.3054070074        6.4480088326       14.3444509809
 N      -14.7129433923        7.3691016021       12.7493306369
Ga      -19.2591284057        9.2093618564       15.9395708129
Ga      -16.6665860148       10.1304549010       14.3443513202
 N      -17.3054121109        9.2097868152       15.9388983402
 N      -14.7128649289       10.1309489780       14.3437059832
Ga      -19.2591700276        6.4475998535       17.5340468361
Ga      -16.6665998934        7.3686736627       15.9388370827
 N      -17.3054444220        6.4480296888       17.5333881176
 N      -14.7128757745        7.3691352562       15.9381393104
Ga      -19.2591966507        9.2093336703       19.1285430055
Ga      -16.6666391419       10.1304397379       17.5333042839
 N      -17.3054856760        9.2097711870       19.1278517875
 N      -14.7129111882       10.1309311412       17.5325693259
Ga      -19.2592713503       11.9710956974        1.5890517709
Ga      -16.6667535574       12.8921916328       -0.0062167191
 N      -17.3055768569       11.9715327110        1.5883470278
 N      -14.7130501320       12.8926647538       -0.0069617080
Ga      -19.2593279910       14.7328671544        3.1835595071
Ga      -16.6668751853       15.6539390853        1.5883034349
 N      -17.3056413905       14.7333013551        3.1829048902
 N      -14.7131989899       15.6544335054        1.5875761362
Ga      -19.2593074947       11.9711112144        4.7780709307
Ga      -16.6669234099       12.8921549635        3.1828094548
 N      -17.3056221434       11.9715251969        4.7774226747
 N      -14.7132479549       12.8925994114        3.1821293548
Ga      -19.2592909862       14.7328982655        6.3726023216
Ga      -16.6669458608       15.6539414015        4.7773741339
 N      -17.3056075261       14.7333095987        6.3720060626
 N      -14.7132758430       15.6544242091        4.7767572335
Ga      -19.2592384960       11.9711344499        7.9671075264
Ga      -16.6669009629       12.8921596546        6.3718915594
 N      -17.3055508287       11.9715552697        7.9665184945
 N      -14.7132401544       12.8926050527        6.3713151081
Ga      -19.2591792485       14.7329104310        9.5616185071
Ga      -16.6667958031       15.6539559160        7.9664512532
 N      -17.3054882721       14.7333398732        9.5610439802
 N      -14.7131110841       15.6544232315        7.9659589757
Ga      -19.2591375271       11.9711532645       11.1561016938
Ga      -16.6667358322       12.8922186272        9.5609509854
 N      -17.3054423798       11.9715804781       11.1555209954
 N      -14.7130389547       12.8926848837        9.5604542016
Ga      -19.2590727970       14.7329048020       12.7506132619
Ga      -16.6665869904       15.6539808310       11.1554536023
 N      -17.3053652597       14.7333380779       12.7500040455
 N      -14.7128606297       15.6544737292       11.1549516437
Ga      -19.2590953609       11.9711270725       14.3450844841
Ga      -16.6665604565       12.8922383427       12.7499108051
 N      -17.3053800220       11.9715710108       14.3444431830
 N      -14.7128356379       12.8927601733       12.7493293967
Ga      -19.2590986056       14.7328859753       15.9395682740
Ga      -16.6665054226       15.6539929647       14.3443725460
 N      -17.3053851767       14.7333257745       15.9388910248
 N      -14.7127692919       15.6545045796       14.3437103174
Ga      -19.2591575344       11.9711072884       17.5340628173
Ga      -16.6665724473       12.8922250239       15.9388328275
 N      -17.3054462713       11.9715515674       17.5333602854
 N      -14.7128432805       12.8927439821       15.9381068508
Ga      -19.2592267744       14.7328749966       19.1285509893
Ga      -16.6666436044       15.6539589159       17.5332989502
 N      -17.3055342033       14.7333106713       19.1278508707
 N      -14.7129198930       15.6544681183       17.5325390723
Ga      -14.0745209839        0.9251807630        1.5875314050
Ga      -11.4818210113        1.8463254562       -0.0078346349
 N      -12.1209076034        0.9258095090        1.5867556557
 N       -9.5281495473        1.8468965912       -0.0087642537
Ga      -14.0744547369        3.6869033196        3.1820589610
Ga      -11.4816401308        4.6079633232        1.5867757206
 N      -12.1208057469        3.6874371432        3.1813489130
 N       -9.5278575941        4.6082675146        1.5859682030
Ga      -14.0746202545        0.9251719261        4.7766704815
Ga      -11.4822978823        1.8463048954        3.1812954913
 N      -12.1210041373        0.9257414214        4.7760563069
 N       -9.5287062267        1.8468559069        3.1804882183
Ga      -14.0744808760        3.6868688913        6.3712545844
Ga      -11.4822667094        4.6078036848        4.7759879179
 N      -12.1208349929        3.6873736876        6.3708019863
 N       -9.5287083008        4.6079123484        4.7753689471
Ga      -14.0743382487        0.9251257927        7.9658727680
Ga      -11.4824065074        1.8462174842        6.3707279719
 N      -12.1206455328        0.9256646085        7.9655621654
 N       -9.5288780553        1.8467579349        6.3703436389
Ga      -14.0741361088        3.6868099774        9.5603743669
Ga      -11.4818662055        4.6076828501        7.9654515362
 N      -12.1203965651        3.6872227227        9.5601003845
 N       -9.5281348487        4.6077763552        7.9654662076
Ga      -14.0739029755        0.9251114235       11.1548826540
Ga      -11.4814758935        1.8461861143        9.5601155914
 N      -12.1201212913        0.9256179067       11.1545759419
 N       -9.5277272411        1.8466500192        9.5603335803
Ga      -14.0738073662        3.6867707964       12.7492665582
Ga      -11.4810857749        4.6078578743       11.1544173175
 N      -12.1199950873        3.6871868291       12.7487522212
 N       -9.5271820493        4.6082464805       11.1544051784
Ga      -14.0736992173        0.9251047491       14.3436247183
Ga      -11.4804598312        1.8463237116       12.7486577482
 N      -12.1198615700        0.9256175433       14.3429037780
 N       -9.5264065686        1.8469253520       12.7481994544
Ga      -14.0739350183        3.6868671608       15.9380599012
Ga      -11.4808619251        4.6079946821       14.3428615089
 N      -12.1201684560        3.6873572738       15.9372458181
 N       -9.5269492844        4.6084803633       14.3421330118
Ga      -14.0741028052        0.9251689117       17.5325126686
Ga      -11.4810944917        1.8463529451       15.9371451217
 N      -12.1203872693        0.9257787589       17.5316437649
 N       -9.5272821207        1.8470374630       15.9361663890
Ga      -14.0741815581        3.6869094212       19.1270475641
Ga      -11.4815763712        4.6080075436       17.5316445529
 N      -12.1204683425        3.6874511670       19.1262781914
 N       -9.5279282082        4.6084800178       17.5306517953
Ga      -14.0741487394        6.4486111668        1.5875277789
Ga      -11.4816089441        7.3697588036       -0.0078304674
 N      -12.1204142543        6.4490928899        1.5867973845
 N       -9.5278920131        7.3703077551       -0.0088603063
Ga      -14.0743676694        9.2103359767        3.1820316317
Ga      -11.4819452738       10.1314861829        1.5867238417
 N      -12.1206803807        9.2107737577        3.1813391473
 N       -9.5282832359       10.1320075144        1.5857947281
Ga      -14.0743858608        6.4486045341        4.7765883796
Ga      -11.4817496537        7.3696689013        3.1813207577
 N      -12.1206967453        6.4490473420        4.7759897698
 N       -9.5279599909        7.3700443885        3.1805927258
Ga      -14.0745070582        9.2103102218        6.3711767548
Ga      -11.4822468274       10.1313650120        4.7759182904
 N      -12.1208445288        9.2107123720        6.3706511327
 N       -9.5285990989       10.1318448048        4.7752529425
Ga      -14.0744044450        6.4485264496        7.9657715154
Ga      -11.4822198712        7.3694859230        6.3707043912
 N      -12.1207189967        6.4488551154        7.9654145090
 N       -9.5285924987        7.3696344087        6.3704556677
Ga      -14.0743773585        9.2103022142        9.5603360604
Ga      -11.4824214919       10.1313345602        7.9653038134
 N      -12.1207035980        9.2107194095        9.5600366439
 N       -9.5288714272       10.1316900342        7.9651750541
Ga      -14.0742186768        6.4484760650       11.1548393642
Ga      -11.4821906173        7.3694628144        9.5600400625
 N      -12.1205288713        6.4487940072       11.1545201125
 N       -9.5286692680        7.3695734078        9.5603094975
Ga      -14.0740770418        9.2103125608       12.7492362615
Ga      -11.4816252427       10.1315299852       11.1544025781
 N      -12.1203399087        9.2107591944       12.7487843147
 N       -9.5278655149       10.1319550685       11.1544971133
Ga      -14.0739801499        6.4485324657       14.3436560711
Ga      -11.4814297426        7.3696438782       12.7486649350
 N      -12.1202303988        6.4489362818       14.3430233849
 N       -9.5277214596        7.3698973480       12.7483103838
Ga      -14.0740366396        9.2103477356       15.9380420293
Ga      -11.4812289482       10.1316700148       14.3429426066
 N      -12.1202986758        9.2108535224       15.9372770662
 N       -9.5274211739       10.1323153198       14.3423543813
Ga      -14.0740319763        6.4486379346       17.5325301344
Ga      -11.4812466413        7.3698158771       15.9371420759
 N      -12.1202840927        6.4491580700       17.5316942815
 N       -9.5274451599        7.3703953863       15.9361143544
Ga      -14.0741758528        9.2103772950       19.1269882561
Ga      -11.4816528309       10.1315764931       17.5316029859
 N      -12.1204727140        9.2108712605       19.1262107128
 N       -9.5279932229       10.1321863460       17.5305294878
Ga      -14.0744262698       11.9721159195        1.5874941843
Ga      -11.4819358574       12.8933466765       -0.0078798554
 N      -12.1207639221       11.9726118792        1.5867084566
 N       -9.5282574142       12.8940353136       -0.0089428596
Ga      -14.0746539183       14.7338905922        3.1820878198
Ga      -11.4824515165       15.6552335499        1.5866982647
 N      -12.1210307816       14.7344409354        3.1813748044
 N       -9.5289421886       15.6561508753        1.5857600985
Ga      -14.0746429699       11.9720747425        4.7766367898
Ga      -11.4824498916       12.8932251563        3.1812913345
 N      -12.1210232913       11.9725350712        4.7759945311
 N       -9.5288807015       12.8937764620        3.1805008875
Ga      -14.0746350553       14.7339043797        6.3712892960
Ga      -11.4826641520       15.6550443677        4.7760302823
 N      -12.1210213638       14.7344659936        6.3708365780
 N       -9.5291526136       15.6556512526        4.7754160411
Ga      -14.0745075771       11.9721176392        7.9658360676
Ga      -11.4827526991       12.8932015703        6.3706388462
 N      -12.1208658784       11.9726063662        7.9654748366
 N       -9.5293296575       12.8937316008        6.3702619230
Ga      -14.0741917633       14.7339221229        9.5604164105
Ga      -11.4820997498       15.6550081510        7.9654257426
 N      -12.1204657608       14.7345063784        9.5601451930
 N       -9.5284497792       15.6556189882        7.9653649660
Ga      -14.0741083803       11.9721350863       11.1548512554
Ga      -11.4818731688       12.8933461900        9.5599713600
 N      -12.1203767589       11.9726694847       11.1545162500
 N       -9.5281843752       12.8940473515        9.5600065296
Ga      -14.0738253122       14.7339453318       12.7492769141
Ga      -11.4809935307       15.6551971977       11.1544657089
 N      -12.1200206110       14.7345389549       12.7487854270
 N       -9.5271013064       15.6559434701       11.1544872764
Ga      -14.0739361049       11.9721531980       14.3436371002
Ga      -11.4810740862       12.8935581440       12.7486927877
 N      -12.1201740028       11.9727260064       14.3429811909
 N       -9.5272293468       12.8944582235       12.7483263127
Ga      -14.0738972981       14.7339399092       15.9380004709
Ga      -11.4804617754       15.6552494485       14.3428367194
 N      -12.1201135733       14.7345504824       15.9371052603
 N       -9.5263783287       15.6560449153       14.3420082178
Ga      -14.0741080834       11.9721703146       17.5324657822
Ga      -11.4811792603       12.8935209959       15.9371432222
 N      -12.1203743587       11.9727368225       17.5316037208
 N       -9.5273523012       12.8943210093       15.9360133692
Ga      -14.0743389250       14.7339158644       19.1269714675
Ga      -11.4816824973       15.6552179506       17.5314871521
 N      -12.1206565158       14.7345185070       19.1261063539
 N       -9.5280201996       15.6560883761       17.5302771413
Ga       -8.8894230637        0.9267134296        1.5858517965
Ga       -6.2963137203        1.8472215029       -0.0107185037
 N       -6.9355401485        0.9276212343        1.5846918677
 N       -4.3425985953        1.8473609084       -0.0136455407
Ga       -8.8893283764        3.6877400095        3.1807538337
Ga       -6.2984224521        4.6067483511        1.5845432908
 N       -6.9354830760        3.6874481834        3.1801638590
 N       -4.3454191383        4.6032370251        1.5816495108
Ga       -8.8908368070        0.9266066943        4.7752313079
Ga       -6.2955123685        1.8469191591        3.1797883540
 N       -6.9375123825        0.9276760949        4.7744261042
 N       -4.3407842770        1.8458654959        3.1786127200
Ga       -8.8900579595        3.6878848352        6.3700791426
Ga       -6.2951543946        4.6071997412        4.7746745313
 N       -6.9364754033        3.6878386845        6.3696687761
 N       -4.3399412289        4.6045875646        4.7752528837
Ga       -8.8904066941        0.9266851489        7.9653106285
Ga       -6.2993197792        1.8462896637        6.3701874116
 N       -6.9371664062        0.9277580584        7.9658543466
 N       -4.3463818979        1.8449442418        6.3708247355
Ga       -8.8883914185        3.6875435784        9.5602392902
Ga       -6.3003148116        4.6076612723        7.9656260049
 N       -6.9344234867        3.6875265932        9.5614807987
 N       -4.3482745215        4.6069868698        7.9674341325
Ga       -8.8869207651        0.9261403940       11.1542123707
Ga       -6.2938673314        1.8465077619        9.5603323874
 N       -6.9326142224        0.9266251779       11.1545144163
 N       -4.3391288786        1.8463464917        9.5606462848
Ga       -8.8866466785        3.6878043779       12.7482355450
Ga       -6.2925511661        4.6099184623       11.1547240203
 N       -6.9322522104        3.6883831011       12.7482103500
 N       -4.3377715860        4.6110487290       11.1564588470
Ga       -8.8866725016        0.9265985053       14.3421913988
Ga       -6.2911432994        1.8477864290       12.7473448654
 N       -6.9323565303        0.9278854806       14.3415972857
 N       -4.3361625841        1.8486864306       12.7476880514
Ga       -8.8882291759        3.6880575122       15.9363829115
Ga       -6.2933323668        4.6093818512       14.3423984253
 N       -6.9344555165        3.6886715228       15.9354339321
 N       -4.3392290776        4.6107856486       14.3431104342
Ga       -8.8890324449        0.9267217100       17.5305539484
Ga       -6.2934538172        1.8487300600       15.9361624157
 N       -6.9354474661        0.9279257302       17.5291854159
 N       -4.3391244707        1.8513381841       15.9368320359
Ga       -8.8892680421        3.6879693970       19.1249579792
Ga       -6.2953189573        4.6091590088       17.5288113097
 N       -6.9356134619        3.6880288677       19.1230425214
 N       -4.3412285132        4.6091053528       17.5250967242
Ga       -8.8892559993        6.4495902715        1.5856193087
Ga       -6.2985788781        7.3717208551       -0.0120901862
 N       -6.9354219791        6.4496122287        1.5840157407
 N       -4.3457113111        7.3728891705       -0.0180054219
Ga       -8.8894756336        9.2116152416        3.1803284293
Ga       -6.2961532083       10.1325533850        1.5830670965
 N       -6.9356207419        9.2124297104        3.1790843196
 N       -4.3414220052       10.1340990134        1.5786638738
Ga       -8.8903236163        6.4489499520        4.7754349325
Ga       -6.2998659724        7.3699471749        3.1806879029
 N       -6.9368960828        6.4480327935        4.7751674837
 N       -4.3470075656        7.3683683873        3.1800923700
Ga       -8.8907224661        9.2112954622        6.3701643794
Ga       -6.2993006147       10.1335001732        4.7748277353
 N       -6.9372518943        9.2116408914        6.3702274011
 N       -4.3457942026       10.1350462256        4.7760563886
Ga       -8.8905819729        6.4493123922        7.9657268263
Ga       -6.3021621663        7.3685183010        6.3710115762
 N       -6.9373044634        6.4491357692        7.9671120547
 N       -4.3502944058        7.3659077744        6.3733413078
Ga       -8.8905342133        9.2107094699        9.5598681142
Ga       -6.3015023147       10.1325052975        7.9667517575
 N       -6.9372436018        9.2099024061        9.5607619353
 N       -4.3491195083       10.1330402059        7.9713728005
Ga       -8.8881710564        6.4492937435       11.1544200875
Ga       -6.2953321084        7.3689188023        9.5617763488
 N       -6.9341884197        6.4493780637       11.1552901561
 N       -4.3406234197        7.3667742939        9.5657056267
Ga       -8.8886162032        9.2107192373       12.7486488493
Ga       -6.3004936591       10.1316316088       11.1550021309
 N       -6.9348398362        9.2100716174       12.7491098210
 N       -4.3489086423       10.1300468409       11.1569272952
Ga       -8.8877316145        6.4495025424       14.3419935571
Ga       -6.2910203878        7.3699051022       12.7475790567
 N       -6.9336972104        6.4497624322       14.3408584001
 N       -4.3352456127        7.3692578299       12.7475493527
Ga       -8.8882873404        9.2116201646       15.9363228451
Ga       -6.2941220031       10.1334339989       14.3410540969
 N       -6.9343253486        9.2123039012       15.9350568383
 N       -4.3398719146       10.1337336390       14.3391620707
Ga       -8.8893102238        6.4496270216       17.5304066220
Ga       -6.2961067664        7.3708210403       15.9345860027
 N       -6.9358133936        6.4498359730       17.5284464358
 N       -4.3427752293        7.3706247348       15.9325766739
Ga       -8.8895055131        9.2118089096       19.1249483208
Ga       -6.2955040732       10.1332400557       17.5291736438
 N       -6.9359594035        9.2127067824       19.1230469144
 N       -4.3412582470       10.1345216876       17.5256012909
Ga       -8.8899093723       11.9733264232        1.5857209033
Ga       -6.3011052915       12.8966106835       -0.0113240288
 N       -6.9362104120       11.9741906459        1.5843735520
 N       -4.3493437747       12.9004690071       -0.0154181656
Ga       -8.8911709852       14.7353765283        3.1802512884
Ga       -6.2982447753       15.6568443585        1.5840391647
 N       -6.9379458246       14.7365562584        3.1789420931
 N       -4.3446383706       15.6576902205        1.5813271618
Ga       -8.8907765551       11.9734687684        4.7754743366
Ga       -6.2999635375       12.8953850716        3.1801641421
 N       -6.9373683349       11.9744952970        4.7750696259
 N       -4.3469732001       12.8985221088        3.1791488990
Ga       -8.8910022144       14.7350027610        6.3702076390
Ga       -6.3016190098       15.6571033963        4.7741229829
 N       -6.9376227971       14.7355131294        6.3697211997
 N       -4.3493865828       15.6596356058        4.7728364958
Ga       -8.8910346609       11.9733710088        7.9649823018
Ga       -6.2979428480       12.8939318665        6.3700167399
 N       -6.9378312019       11.9740508172        7.9648698008
 N       -4.3435230148       12.8951190056        6.3701643563
Ga       -8.8891695489       14.7354018053        9.5601768736
Ga       -6.3016227835       15.6571206864        7.9650682941
 N       -6.9354328030       14.7364987944        9.5610421181
 N       -4.3499338392       15.6594679550        7.9653774319
Ga       -8.8889005915       11.9734227425       11.1544290727
Ga       -6.2993793064       12.8944688467        9.5593138564
 N       -6.9351109989       11.9741837929       11.1551577573
 N       -4.3467068918       12.8946134179        9.5596257877
Ga       -8.8864882221       14.7351668411       12.7480136203
Ga       -6.2907496580       15.6573424627       11.1545205955
 N       -6.9320152265       14.7359336273       12.7475599943
 N       -4.3349919690       15.6595405267       11.1546890082
Ga       -8.8877706144       11.9734202890       14.3418949624
Ga       -6.2909904632       12.8953963397       12.7485424027
 N       -6.9337575699       11.9740766776       14.3408262674
 N       -4.3351308613       12.8954219494       12.7494603694
Ga       -8.8877061001       14.7354391535       15.9362220075
Ga       -6.2933639164       15.6574828047       14.3408555832
 N       -6.9335792685       14.7365341345       15.9351890829
 N       -4.3393366017       15.6595372293       14.3397639518
Ga       -8.8894075432       11.9734270663       17.5302330208
Ga       -6.2952417123       12.8948435255       15.9343233998
 N       -6.9358652595       11.9741364487       17.5283949704
 N       -4.3413716768       12.8959487375       15.9322792774
Ga       -8.8905822466       14.7358274318       19.1249572918
Ga       -6.2961189483       15.6584228581       17.5298262516
 N       -6.9374218929       14.7376475290       19.1234006226
 N       -4.3423005765       15.6622226651       17.5295363567
Ga       -3.7047293812        0.9276601417        1.5802763923
Ga       -1.0895756939        1.8528217474       -0.0127494996
 N       -1.7518307454        0.9256143266        1.5726146097
 N        0.8740207001        1.8604483986       -0.0161624330
Ga       -3.6978772408        3.6855530120        3.1771246372
Ga       -1.1286286110        4.6075853514        1.5625767820
 N       -1.7390991296        3.6786723493        3.1738886077
 N        0.8129372602        4.6302109091        1.4669698956
Ga       -3.7039927495        0.9276002704        4.7764059804
Ga       -1.1175692604        1.8245482608        3.1757893086
 N       -1.7493102891        0.9242352745        4.7807376462
 N        0.8267145867        1.7118775508        3.1736892321
Ga       -3.7092246258        3.6840765654        6.3759539355
Ga       -1.1462337417        4.5925146751        4.7951898113
 N       -1.7578894539        3.6772446439        6.3903555250
 N        0.7804357195        4.5385673823        4.8931324976
Ga       -3.7031407792        0.9268155387        7.9637569496
Ga       -1.0882580123        1.8444449240        6.3727024450
 N       -1.7486181102        0.9256854841        7.9594188086
 N        0.8795868691        1.8404519679        6.3771268984
Ga       -3.7072181369        3.6889120710        9.5608832256
Ga       -1.0992575416        4.6088254164        7.9753988225
 N       -1.7568257224        3.6899481832        9.5599650900
 N        0.8620814710        4.6165851160        7.9933325180
Ga       -3.6873549451        0.9298924792       11.1540678569
Ga       -1.1098700516        1.8581810800        9.5421974317
 N       -1.7261110004        0.9372272380       11.1532295694
 N        0.8342534979        1.9093966977        9.4459427777
Ga       -3.7006145073        3.6905445439       12.7509641479
Ga       -1.1022999829        4.5864614515       11.1575593502
 N       -1.7487496158        3.6924326197       12.7582290808
 N        0.8442360166        4.4718475215       11.1604324862
Ga       -3.7009827838        0.9307281894       14.3451280485
Ga       -1.1081091684        1.8566330828       12.7676472135
 N       -1.7489323269        0.9356227166       14.3550470160
 N        0.8357579764        1.9044996214       12.8681033615
Ga       -3.6928757237        3.6897095757       15.9331395033
Ga       -1.0837798281        4.6191596641       14.3403708801
 N       -1.7356783283        3.6923969210       15.9272579285
 N        0.8783027712        4.6391369586       14.3416729842
Ga       -3.6937491049        0.9309988067       17.5279468981
Ga       -1.0777818658        1.8584161758       15.9378496726
 N       -1.7359782660        0.9367328050       17.5274200780
 N        0.8894382907        1.8745344638       15.9504274956
Ga       -3.7047870544        3.6869293469       19.1178190372
Ga       -1.0973691273        4.6087383900       17.5180065164
 N       -1.7521218335        3.6848763423       19.1065429669
 N        0.8591198573        4.6041584861       17.4952154073
Ga       -3.7244298382        6.4480931131        1.5772005539
Ga       -1.1079966253        7.3575598812       -0.0242363951
 N       -1.7806004319        6.4413712270        1.5609564906
 N        0.8462337963        7.2672056164       -0.0547106717
Ga       -3.7133995324        9.2123648699        3.1790293112
Ga       -1.1651877944       10.1581782116        1.5776411323
 N       -1.7609305783        9.2107285481        3.1797914711
 N        0.7547515462       10.2695919094        1.5696633492
Ga       -3.7065654798        6.4486945088        4.7782393802
Ga       -1.1571923767        7.3508990400        3.1550945040
 N       -1.7506601277        6.4467107199        4.7824127724
 N        0.7691357164        7.2755628135        3.0443310020
Ga       -3.7239869151        9.2089048296        6.3761857500
Ga       -1.1516697892       10.1202297176        4.8016578912
 N       -1.7784614023        9.2020627913        6.3929834878
 N        0.7797263558       10.0596753773        4.9171641356
Ga       -3.7096720958        6.4468487900        7.9685330038
Ga       -1.1146794072        7.3680024630        6.3894999739
 N       -1.7579723529        6.4437255708        7.9746872642
 N        0.8397146893        7.3915007751        6.4836307250
Ga       -3.7105966547        9.2100041393        9.5659666029
Ga       -1.1309897207       10.1222659807        7.9848334290
 N       -1.7598028170        9.2083800764        9.5768195944
 N        0.8116514607       10.0488979185        8.0292051130
Ga       -3.6832170487        6.4480867159       11.1573181203
Ga       -1.1119044079        7.3741862885        9.5591810461
 N       -1.7193746877        6.4430421675       11.1629398584
 N        0.8346636300        7.4147530375        9.5088303921
Ga       -3.7000060562        9.2113775657       12.7467711406
Ga       -1.0799462699       10.1264103513       11.1573979770
 N       -1.7464034207        9.2110021852       12.7438043667
 N        0.8908458311       10.1133765465       11.1596047095
Ga       -3.6962551484        6.4501955272       14.3423486179
Ga       -1.0949732963        7.3786210242       12.7626061834
 N       -1.7414019796        6.4527284885       14.3462400785
 N        0.8540300237        7.4241457130       12.8442560042
Ga       -3.7049367942        9.2107862916       15.9312329964
Ga       -1.0946105800       10.1149595882       14.3356013483
 N       -1.7536623437        9.2062678979       15.9235363653
 N        0.8576292080       10.0126350642       14.3263302209
Ga       -3.7021685056        6.4494911700       17.5243568525
Ga       -1.0912077952        7.3734531220       15.9340159005
 N       -1.7481419459        6.4460135775       17.5167635022
 N        0.8691600245        7.3718700442       15.9366076563
Ga       -3.6960499879        9.2118036382       19.1160243017
Ga       -1.1139959949       10.1482804987       17.4968462913
 N       -1.7359321324        9.2137341103       19.1026006529
 N        0.8288830645       10.2075960059       17.3790325564
Ga       -3.7173130794       11.9830624641        1.5790306490
Ga       -1.0894162936       12.9019448045       -0.0253445499
 N       -1.7695772586       11.9992966443        1.5684562490
 N        0.8797814471       12.9121714161       -0.0517263466
Ga       -3.7097346750       14.7403759931        3.1783423091
Ga       -1.1129130843       15.6572915719        1.5765912503
 N       -1.7574158269       14.7474514281        3.1756645966
 N        0.8393099837       15.6559686001        1.5612554965
Ga       -3.7020756267       11.9778595408        4.7722028018
Ga       -1.1149676437       12.9123998048        3.1598089732
 N       -1.7436392595       11.9839904302        4.7697647358
 N        0.8360848766       12.9847614654        3.0692745380
Ga       -3.7184300833       14.7418113385        6.3696747841
Ga       -1.1096120704       15.6542037447        4.7757821301
 N       -1.7708877381       14.7544603253        6.3704714389
 N        0.8472914627       15.6470443506        4.7774033819
Ga       -3.7045813623       11.9738821599        7.9672427552
Ga       -1.1472928975       12.9225148049        6.3764146726
 N       -1.7476740308       11.9757328856        7.9733619560
 N        0.7790180984       13.0495339467        6.3959334320
Ga       -3.7102682525       14.7365378930        9.5565705287
Ga       -1.0996923482       15.6589526468        7.9599376405
 N       -1.7602194952       14.7363079264        9.5487644420
 N        0.8626070968       15.6663915895        7.9495593414
Ga       -3.7114968752       11.9688301956       11.1522971287
Ga       -1.1167291034       12.8977378664        9.5739782912
 N       -1.7624600553       11.9572541347       11.1487526694
 N        0.8315729717       12.9298466162        9.6496211214
Ga       -3.6909834450       14.7377647161       12.7479103540
Ga       -1.1160942280       15.6545230620       11.1346016436
 N       -1.7316496469       14.7392635741       12.7483015431
 N        0.8244361457       15.6187410210       11.0394196775
Ga       -3.6901287208       11.9718863519       14.3428487165
Ga       -1.1328922307       12.8798219615       12.7323631927
 N       -1.7295446879       11.9670263552       14.3464063959
 N        0.7964468246       12.8076003938       12.6524568440
Ga       -3.7098603640       14.7395367125       15.9361420894
Ga       -1.1113412784       15.6681827937       14.3581712293
 N       -1.7611950101       14.7480792878       15.9411857461
 N        0.8332377547       15.7178075019       14.4571108729
Ga       -3.7069310048       11.9779574711       17.5279321736
Ga       -1.1117263153       12.9173670515       15.9407941692
 N       -1.7551692171       11.9855209325       17.5228336738
 N        0.8334984084       12.9934961419       16.0118295030
Ga       -3.7024435172       14.7380793158       19.1207839970
Ga       -1.1046383293       15.6649059638       17.5286383239
 N       -1.7471713046       14.7380797147       19.1163619687
 N        0.8493429413       15.6744314835       17.5415643836
Ga        1.4943145775        0.8952755067        1.5566168039
In        4.2162789648        1.8846531233       -0.0529322305
 N        3.4383622827        0.8354511264        1.5621184758
 N        6.3238603492        1.9235034573       -0.1422723960
In        1.5410979610        3.6687258047        3.1669387182
Ga        4.2660685913        4.6430852083        1.5728028475
 N        3.6373983234        3.7966176944        3.1760571164
 N        6.2492453691        4.6260820262        1.6014531282
Ga        1.4844873471        0.8892819878        4.7932667562
In        4.2365787269        1.8179332735        3.2060698390
 N        3.4189197127        0.8230771902        4.8256087133
 N        6.3306699772        1.8761508486        3.2960825361
Ga        1.5278321942        3.6810384884        6.4276735394
Ga        4.2703529969        4.6085894771        4.7888868583
 N        3.4844125320        3.8259487435        6.3819324178
 N        6.2166867470        4.4912326533        4.7995448649
Ga        1.5308170988        0.9167772579        7.9558525067
In        4.2357875017        1.8735465705        6.4163880961
 N        3.4838443104        0.8699416037        8.0805326436
 N        6.3576947356        1.8643485797        6.3903652965
Ga        1.5578870274        3.6881667753        9.5430841577
Ga        4.2102785493        4.6351831370        7.9874922870
 N        3.5330739885        3.7074178572        9.5551160183
 N        6.1856754107        4.6430294070        7.9355109802
In        1.5765467628        0.9817486966       11.1494639538
Ga        4.2356587308        1.9039766280        9.5272320320
 N        3.6820765464        1.0727373561       11.1557732036
 N        6.1875556864        1.9209624364        9.4300746830
Ga        1.5473315403        3.6948035256       12.7825154222
Ga        4.2381910827        4.5894048241       11.1532781666
 N        3.5159779255        3.7206996216       12.7520521910
 N        6.2102084284        4.5882768275       11.1323215347
Ga        1.5314584992        0.9409527137       14.3804289994
Ga        4.2144574748        1.9115466321       12.7883322155
 N        3.4791374862        0.8504563539       14.2252925499
 N        6.1583169773        1.9359614607       12.8853322829
Ga        1.5362085928        3.7152049532       15.9196914302
Ga        4.1706476163        4.6715077116       14.3125316900
 N        3.4935804447        3.8193851255       15.9181585254
 N        6.1259828100        4.6805871049       14.2693851535
Ga        1.4939836897        0.9235831650       17.5327200091
In        4.1979985630        1.8503545263       15.8939082635
 N        3.4263268394        0.8068063081       17.5011101861
 N        6.2905462359        1.7256101243       15.9305601170
Ga        1.5274436562        3.7030729543       19.0767476220
Ga        4.1768628141        4.6781062852       17.5117880867
 N        3.4839362277        3.8399551613       19.1146591546
 N        6.1339084452        4.7228611521       17.6045055411
Ga        1.5320397566        6.4023852023        1.5211456408
In        4.2650721881        7.3711220587       -0.0498480498
 N        3.4965742562        6.3989166827        1.6260989232
 N        6.3732705433        7.3905388112       -0.0402993078
In        1.5285583833        9.1994559179        3.1707362764
Ga        4.2697755270       10.1129432975        1.5494597158
 N        3.6273970956        9.1342803150        3.0622233409
 N        6.2236852859       10.0407366860        1.5744889549
In        1.5789215185        6.4487489531        4.7738077197
Ga        4.2791411135        7.3414718984        3.0994521345
 N        3.6933017084        6.4276816821        4.6778227441
 N        6.2240133170        7.4258132943        3.0582463199
Ga        1.4926772300        9.1927482318        6.4735135808
In        4.2834116894       10.0919348258        4.8009276870
 N        3.4356092525        9.2811945715        6.5170208959
 N        6.3870879207       10.1174829781        4.7843551574
Ga        1.5286784021        6.4384018982        8.0108309291
In        4.2705684048        7.3870476262        6.4325796106
 N        3.4858036249        6.4143387662        8.1011659082
 N        6.3756436355        7.4551009302        6.4918164814
Ga        1.5565785020        9.1997614953        9.5836577712
Ga        4.2468271294       10.1417129816        8.0263030127
 N        3.5321788251        9.2119545972        9.5809826799
 N        6.2113997059       10.1445758998        7.9566794843
In        1.5716002105        6.4211112683       11.1751109892
Ga        4.2287133388        7.3887478352        9.5922358697
 N        3.6740386209        6.4413690936       11.1722749050
 N        6.1866034770        7.3836709332        9.5615068110
Ga        1.5853659979        9.2047400524       12.7402662412
Ga        4.2128019627       10.1440040376       11.1403429384
 N        3.5687065013        9.2164839546       12.7411038785
 N        6.1761857577       10.2018371389       11.0243518149
Ga        1.5482186718        6.4672578676       14.3647307990
Ga        4.2265602053        7.3778238859       12.7565474116
 N        3.5140826145        6.4892540965       14.3198694160
 N        6.1732238420        7.2714722037       12.7545069096
Ga        1.5620684827        9.1859015138       15.9118726812
Ga        4.2294145773       10.1143358305       14.3491107062
 N        3.5368222068        9.2064044854       15.9173713783
 N        6.1722006050       10.1853649577       14.4609900140
Ga        1.5203082408        6.4219635184       17.4810529436
Ga        4.2118768920        7.3861413795       15.8923881521
 N        3.4698116815        6.4465970588       17.4019605735
 N        6.1859367570        7.3845289436       15.9347849019
In        1.5385063119        9.2408769171       19.0747667284
Ga        4.2631051669       10.1608013272       17.4504764924
 N        3.6378966964        9.3431910672       19.0620631854
 N        6.2350360974       10.1546730994       17.5257199986
Ga        1.5086573016       12.0195227660        1.5407817846
In        4.2167992938       12.8815111442       -0.0582925761
 N        3.4525605492       11.8508036502        1.5849109087
 N        6.3226138867       12.9457233676       -0.1360368287
Ga        1.5148015968       14.7940987476        3.1607007448
Ga        4.1537398396       15.6377365260        1.5544019875
 N        3.4765309320       14.8568352996        3.1859817215
 N        6.1040547318       15.5775831805        1.4731001725
In        1.5186236394       12.0040569413        4.7834061591
In        4.2139407393       12.9136636980        3.2009158221
 N        3.6014015452       12.0368862836        4.9518591503
 N        6.2928739650       12.8303236630        3.3135025614
Ga        1.5569318610       14.7919822720        6.3675894857
Ga        4.1946013634       15.6533578140        4.8093306043
 N        3.5368390778       14.7404896284        6.3897852266
 N        6.1621851053       15.7453911510        4.8887862666
In        1.5841927754       11.9778139623        7.9765469335
Ga        4.3157320033       12.9533998475        6.4520475747
 N        3.6954036473       11.9827640480        8.0003393210
 N        6.2852554787       12.9177142674        6.4007099184
Ga        1.5303895778       14.7159292089        9.5035195509
Ga        4.2124229526       15.6462067791        7.9685579914
 N        3.4899194079       14.6597839080        9.4633197539
 N        6.1895150017       15.6679293285        7.9728879821
Ga        1.5619862702       11.9389416241       11.1351736575
Ga        4.2478697647       12.8873641681        9.5880920343
 N        3.5388040059       11.9689485468       11.1551819010
 N        6.2082001130       12.9070944698        9.5556999068
In        1.5603067673       14.7263960138       12.7687549742
In        4.2628488638       15.6389373126       11.1372903614
 N        3.6583635072       14.6364902672       12.8555295375
 N        6.3514546553       15.5285329901       11.1425966179
In        1.5765252862       11.9590758044       14.3643759678
Ga        4.2789618252       12.8283667333       12.7414039898
 N        3.6787786407       11.9540088867       14.3333263849
 N        6.2275141896       12.8419642825       12.7532705727
Ga        1.5602360589       14.7785909170       15.9819644464
Ga        4.2536532231       15.6405663312       14.3734336231
 N        3.5397193573       14.7259899601       15.9385774855
 N        6.2280782841       15.6461784528       14.3523305382
Ga        1.5385517998       12.0014084937       17.4906461222
Ga        4.2559332233       12.9098939612       15.9011772002
 N        3.4965967905       11.9305416779       17.3736063014
 N        6.2239324026       12.9064480352       15.9331094279
Ga        1.5043137299       14.7551927062       19.1112658877
Ga        4.2060222646       15.6282733345       17.5210519270
 N        3.4531618332       14.8160418689       19.1019860606
 N        6.1865260589       15.6546673227       17.5272048680
In        6.9495893849        0.9093781334        1.5713565991
In        9.6227092474        1.8411510164       -0.0169774393
 N        9.0419147125        0.8451885161        1.7133211813
 N       11.7330759014        1.8025550758        0.0195754745
Ga        6.9366423976        3.6875595707        3.1997826482
In        9.5958827584        4.6079243370        1.6027479300
 N        8.8938587579        3.5999574802        3.2838987108
 N       11.6901824472        4.4384518828        1.6067835641
Ga        6.9819312267        0.9327511266        4.8342574089
Ga        9.6497759866        1.8164586443        3.2493688158
 N        8.9492130745        0.9110481350        4.7963236423
 N       11.6160107393        1.8190474043        3.2180376930
Ga        6.9511052834        3.6988547353        6.3978177261
Ga        9.6429470099        4.5621940879        4.7750568140
 N        8.9260657488        3.6944327791        6.3599769177
 N       11.6109926591        4.5907417642        4.7746465810
Ga        6.9159627093        0.9094474680        7.9498721536
Ga        9.5994887682        1.8556334430        6.3558415252
 N        8.8725343914        0.8801193302        7.8664083881
 N       11.5740103621        1.8529281342        6.3596654075
Ga        6.8487912169        3.7310374603        9.5012655576
Ga        9.5967995212        4.6130669630        7.9247167832
 N        8.7934233884        3.7518893908        9.4275817600
 N       11.5746197342        4.6115621575        7.9482159716
In        6.8787067710        0.9796273852       11.1736833064
In        9.6378984929        1.8694111388        9.5249163398
 N        8.9652887690        1.0275403542       11.2910392042
 N       11.7449481583        1.8725622569        9.5294064573
Ga        6.8674892265        3.7285811484       12.7642263508
In        9.5672978461        4.6186905655       11.1500671227
 N        8.8333249119        3.6881930108       12.8752101677
 N       11.6856524224        4.6189830430       11.1369267453
Ga        6.9137265769        0.9068064318       14.3355237255
Ga        9.6065758844        1.9263057762       12.8363704060
 N        8.8661679019        1.0427389855       14.3653780135
 N       11.5747981991        1.8909545170       12.7755457659
In        6.9075917657        3.7101891692       15.9482330775
Ga        9.5908937053        4.6083687024       14.3959011597
 N        9.0207475948        3.6797423338       15.9712374380
 N       11.5635397725        4.6035158020       14.3616005041
Ga        6.9373671823        0.8727925051       17.4974276980
Ga        9.6106692389        1.8405758856       15.9541228449
 N        8.8860272416        0.8402158976       17.4403148643
 N       11.5774213511        1.8259265474       15.9674868836
Ga        6.8679791353        3.7638637822       19.1025405527
Ga        9.5945184755        4.6370824292       17.5249095369
 N        8.8019702955        3.7612711429       19.0194904859
 N       11.5419412510        4.4601920478       17.5624231283
Ga        6.9362199759        6.4632770749        1.5563793964
Ga        9.4894236204        7.4153912146       -0.0299307470
 N        8.8823044261        6.5720578218        1.5896574229
 N       11.4091749025        7.3599794814        0.0106013321
Ga        6.9611013462        9.2107831493        3.1622638914
Ga        9.6170884457       10.1387342577        1.6015031996
 N        8.9298300991        9.2263719777        3.1780247898
 N       11.5660646286       10.1989416763        1.7198917828
In        6.9386282240        6.4442910220        4.7552099668
Ga        9.6181945995        7.4171281422        3.1626288544
 N        9.0264268635        6.3765498879        4.6526084684
 N       11.5646534289        7.4415966174        3.2997453257
Ga        6.9746516298        9.2739382896        6.4061985012
Ga        9.6238468634       10.1507451232        4.7476127044
 N        8.9147611472        9.3531871607        6.3568340637
 N       11.5969393329       10.1571772245        4.8081725763
Ga        6.9108936133        6.4441007565        8.0273932157
In        9.6230735119        7.3872860115        6.3692189643
 N        8.8643594956        6.3846595992        8.0346965477
 N       11.7273326110        7.3759698527        6.3809941433
Ga        6.8766659049        9.2053047037        9.5099289687
Ga        9.5961501742       10.1442461850        7.9626925981
 N        8.8400845903        9.1466769382        9.4312959466
 N       11.5718288545       10.1351176673        7.9539793466
Ga        6.8283075753        6.4400938506       11.1290495255
Ga        9.5701966097        7.3619560095        9.5216629031
 N        8.7713634778        6.5317566547       11.0544917373
 N       11.5522336686        7.3396315635        9.5301607757
In        6.8502865197        9.2370577427       12.7468729273
In        9.5948172582       10.1424537985       11.1094184869
 N        8.9240456971        9.2848646398       12.8686241175
 N       11.6961938235        9.9891861960       11.1302577882
Ga        6.8547550312        6.4510563455       14.3635528926
In        9.5901842809        7.3310684771       12.7833294296
 N        8.8113107059        6.3753255679       14.4603477081
 N       11.6963996723        7.3014430610       12.7283757993
Ga        6.8788527094        9.2067288768       15.9643910553
Ga        9.5591901504       10.1492257070       14.4239003132
 N        8.8427547059        9.1997916402       15.9545227941
 N       11.5067938523       10.0085025314       14.3280110643
Ga        6.9217303954        6.4813279781       17.4983494379
Ga        9.5391155020        7.3785909695       15.9366647197
 N        8.8926881317        6.4591571483       17.5158994310
 N       11.5029244764        7.3829966577       15.8156731588
Ga        6.9384092265        9.2367057205       19.1033897011
Ga        9.5223300632       10.1262284569       17.5152980442
 N        8.9022024403        9.2616235050       19.1334910840
 N       11.4592125155       10.0533453864       17.4165178074
In        6.9885881181       11.9669043301        1.5731817056
Ga        9.5917670632       12.9204691655        0.0019978981
 N        9.0781674680       11.9872225458        1.5996770984
 N       11.5380517698       12.9678936986        0.1350038280
In        6.9545326565       14.7818367408        3.2097877625
Ga        9.6738356579       15.6149553454        1.6092202506
 N        9.0729503760       14.7282912977        3.2030088084
 N       11.6290547505       15.6541711901        1.6239900185
Ga        6.9811686862       11.9541232943        4.8445945457
Ga        9.6824448983       12.8967714815        3.1904704680
 N        8.9240797839       11.9412280501        4.6825380887
 N       11.6365373833       12.9140153282        3.2394525084
Ga        6.8927501764       14.7749994947        6.3955883364
Ga        9.6470003179       15.6790559284        4.7813220052
 N        8.8571222684       14.8504426506        6.3320935256
 N       11.6126487738       15.6627178270        4.7933541598
Ga        6.8862598459       11.9692549554        7.9955576711
In        9.6115277042       12.9051431764        6.3865324491
 N        8.8419067044       11.9136479325        8.0594286781
 N       11.7239778609       12.9008735349        6.3607973882
Ga        6.9089028564       14.7061600301        9.4992174582
Ga        9.5884444109       15.6673397982        7.8997763655
 N        8.8570299666       14.7041171888        9.4028947507
 N       11.5625566024       15.6731488476        7.9169652244
Ga        6.8843859167       12.0066460366       11.1270244657
Ga        9.5508744727       12.9178608675        9.5275144517
 N        8.8444442188       12.0949300015       11.1354989899
 N       11.5088890806       12.9641823913        9.4141652280
Ga        6.8586321469       14.6681914421       12.7831064106
In        9.5999013210       15.6227091566       11.1384975472
 N        8.7827609043       14.6286232254       12.7821855033
 N       11.7187321061       15.6639086064       11.1306284694
Ga        6.8984308889       11.9787833876       14.3666821912
Ga        9.5011656145       12.8798498411       12.7732634282
 N        8.8729514574       11.9715404016       14.3791722437
 N       11.4365236936       13.0387601815       12.7327376556
Ga        6.8669838873       14.7348902134       15.9600300688
In        9.5716428474       15.6597831814       14.3953630049
 N        8.8184843156       14.6836352412       16.0755217741
 N       11.6754420605       15.7021018949       14.3562863749
Ga        6.9450958344       11.9719858177       17.4763640317
Ga        9.5223500519       12.9035755782       15.9651796495
 N        8.9122360003       11.9740198671       17.5492492657
 N       11.4644974856       13.0505219470       15.9504475240
Ga        6.9302125237       14.7568122648       19.0747739220
Ga        9.5887698484       15.6246886069       17.5753399368
 N        8.9078909372       14.7507134947       19.1672279408
 N       11.5631585888       15.6711031337       17.5829556765
Ga       12.3023073517        0.9047738004        1.6361292542
Ga       14.9059032369        1.8400586955        0.0491993284
 N       14.2594471301        0.9069498389        1.6272153320
 N       16.8550443720        1.8816677975        0.1345889531
Ga       12.3097091247        3.6271714929        3.2277364556
Ga       14.9498559077        4.5697929893        1.6118466578
 N       14.2681396355        3.6586992804        3.1966364822
 N       16.9069658643        4.5657657565        1.6191845661
Ga       12.2773184567        0.9187531138        4.7968501312
Ga       14.9271727932        1.8295143575        3.1977667649
 N       14.2434481488        0.9143678280        4.7617210273
 N       16.8887774696        1.8221081755        3.2099908444
Ga       12.2571972833        3.6819111953        6.3702827366
Ga       14.9071032338        4.5973837217        4.7716495237
 N       14.2273677628        3.6784962130        6.3520755997
 N       16.8707235219        4.5908269416        4.7512239229
Ga       12.2609886623        0.9170353249        7.9158896070
Ga       14.9128903169        1.8477880880        6.3159660726
 N       14.2050707430        0.8524903339        7.8030534050
 N       16.8803483944        1.8299628671        6.3385237757
Ga       12.3019566014        3.7318430044        9.5292501052
Ga       14.9030415868        4.6465305549        7.9002204468
 N       14.2485313012        3.8516336951        9.5365251163
 N       16.8575372647        4.6692146652        7.8248704842
Ga       12.2163234985        0.9638074545       11.1721062894
In       14.8993769684        1.8646790327        9.4879725368
 N       14.1266851077        0.9429539426       11.1711238070
 N       16.9876715620        1.7341369820        9.4984529293
Ga       12.2422605093        3.7233862416       12.7622270020
Ga       14.8882617738        4.6940838085       11.1710923548
 N       14.1864069198        3.8330790597       12.7635920509
 N       16.8408391721        4.7044718050       11.2594563507
Ga       12.2387807092        0.9702306689       14.3642134276
In       14.9646646020        1.8995000116       12.7925268225
 N       14.1744834282        0.9239410386       14.4607426808
 N       17.0816738188        1.8642573787       12.7030043919
Ga       12.2376281472        3.6556659456       15.9436505487
Ga       14.8822657313        4.6030705019       14.3885586802
 N       14.2088069600        3.6821424305       15.9702498653
 N       16.8365277375        4.4899699929       14.3695215465
Ga       12.2869563485        0.9085216682       17.5445700626
Ga       14.8821268530        1.8577024138       15.9905187102
 N       14.2534035149        0.9305673286       17.5856300531
 N       16.8367811908        1.8932305702       15.8744130788
Ga       12.3264569193        3.6226798348       19.1277119793
Ga       14.9444352502        4.5657827226       17.5507969667
 N       14.2789744108        3.6749658199       19.1473013150
 N       16.9104552061        4.5382246521       17.5568050390
In       12.2860576270        6.4252116167        1.6347148145
Ga       14.9913464587        7.3193205302        0.0234675756
 N       14.3867603743        6.4226593095        1.6142559453
 N       16.9197232037        7.2058615764        0.0335092547
Ga       12.2752250974        9.2412225353        3.2492898629
Ga       14.9176141810       10.1452360239        1.6475650788
 N       14.2460637949        9.2032183378        3.2115339687
 N       16.8654448783       10.2021774569        1.7362803089
Ga       12.2861060941        6.4323559144        4.7908410973
Ga       14.9329603062        7.3688783652        3.2051342264
 N       14.2493474316        6.4338188397        4.7665940232
 N       16.8870612899        7.3443534007        3.2029425558
Ga       12.2841043146        9.2325218859        6.3746765552
Ga       14.9318263502       10.1358200819        4.7775478895
 N       14.2473541179        9.2196836423        6.3436069617
 N       16.9001908669       10.1465443930        4.8021171877
Ga       12.2748545579        6.4313263778        7.9650461317
Ga       14.8933009514        7.3774513248        6.3465835601
 N       14.2359259561        6.4554622176        7.9317234902
 N       16.8562338737        7.3808259172        6.3457385886
Ga       12.2539605652        9.1491355023        9.4897802188
Ga       14.9105282184       10.1260834621        7.9177886146
 N       14.2043070928        9.1411990363        9.4197329873
 N       16.8719513827       10.1340204567        7.9462323511
Ga       12.2893519747        6.4549776373       11.1076947230
Ga       14.9113931365        7.3526176006        9.5134509430
 N       14.2402391664        6.5040669893       11.1290046735
 N       16.8724963701        7.3724932977        9.5235625594
Ga       12.2562390089        9.1338873724       12.7654233586
In       14.9404706669       10.1054265790       11.1310874662
 N       14.1959404161        9.1275473704       12.8366701639
 N       17.0566087941       10.1207668306       11.1012572836
Ga       12.2780516414        6.4118055246       14.3330560922
Ga       14.8952922183        7.3425923636       12.7572150931
 N       14.2498950028        6.4359446547       14.3748140542
 N       16.8477076331        7.4323773140       12.6444081970
Ga       12.2304605003        9.1638944807       15.8959678153
Ga       14.9038735760       10.0492000812       14.3587736454
 N       14.2130205163        9.1844844372       15.9722103055
 N       16.8477574372       10.0890854962       14.2369021803
In       12.2432667149        6.4123139145       17.5087384949
Ga       14.8820721189        7.3461739551       15.9815812447
 N       14.3485413298        6.4102529614       17.5754802254
 N       16.8140524532        7.2823951443       16.0821899949
In       12.2782244326        9.2319609483       19.1489619955
Ga       14.9050354872       10.0938673270       17.5673558814
 N       14.3974953522        9.1688651740       19.1803069903
 N       16.8279393304       10.2178652772       17.5660314189
Ga       12.2666397403       12.0080346007        1.6594380617
Ga       14.9309168338       12.8958124608        0.0781457977
 N       14.2367353257       11.9749028085        1.6401155456
 N       16.8974643625       12.8935335696        0.0527200746
Ga       12.2888406722       14.7442345320        3.2134311619
Ga       14.9212678423       15.6467586621        1.6166355435
 N       14.2518111694       14.7347426044        3.1971432549
 N       16.8914617543       15.6505456398        1.6246628975
Ga       12.3126575324       11.9665820525        4.7850434384
Ga       14.9159873792       12.9059397697        3.2060522586
 N       14.2694763070       11.9628772548        4.7745120007
 N       16.8768445047       12.9303662851        3.2128226773
Ga       12.2961614264       14.7480997788        6.3613226602
Ga       14.9239127263       15.6589291695        4.7622928850
 N       14.2568770555       14.7179668795        6.3201668486
 N       16.8883598299       15.6581739077        4.7672388274
Ga       12.2785814767       11.9597323616        7.9449245386
Ga       14.9167122940       12.8846582136        6.3557918596
 N       14.2455972768       11.9530516758        7.9372101935
 N       16.8824336671       12.8987642725        6.3577153079
Ga       12.2501407546       14.7564419374        9.4827422887
Ga       14.9291468358       15.6334261855        7.8698009581
 N       14.2036902736       14.6850330013        9.3857179884
 N       16.8976334609       15.6422428691        7.8892459318
In       12.2438511999       12.0066669247       11.1126438358
Ga       14.9390301732       12.9088378134        9.4725286255
 N       14.3393402185       12.1093421986       11.1095014555
 N       16.8949239435       12.9021510745        9.4956659760
Ga       12.2723059029       14.7718719976       12.7662044027
In       14.9250247427       15.6010903288       11.1274755039
 N       14.2231209539       14.6707328616       12.8808384601
 N       17.0350492159       15.6912565429       11.0043418398
In       12.2107751346       11.9706584808       14.3310346031
Ga       14.9538617899       12.8800008726       12.7510269272
 N       14.3052419351       11.8676091727       14.2438237997
 N       16.8969968768       12.7745531942       12.7373278328
Ga       12.2296486234       14.8146076406       15.9811532233
Ga       14.8344906686       15.6893964725       14.4195350876
 N       14.1831030119       14.8266165435       16.0174503630
 N       16.7670824629       15.8007192474       14.3759485069
In       12.2121657643       11.9843734416       17.5703496339
In       14.9418637167       12.8695360930       15.9609243281
 N       14.3005826588       11.9045133763       17.6883800202
 N       17.0368964398       12.7352721558       15.9487641483
Ga       12.2586268856       14.7577378323       19.1693333730
Ga       14.8647397344       15.6596778415       17.6229009267
 N       14.2219746123       14.7186162369       19.1861033485
 N       16.8021789541       15.5759296529       17.6954927776
Ga       17.5622415189        0.9078953278        1.6439210932
Ga       20.2272779962        1.8294823033        0.0659369897
 N       19.5283176835        0.9100976061        1.6174561692
 N       22.1665262424        1.7510008679        0.1421155017
Ga       17.5490805363        3.6458300966        3.1929519264
Ga       20.1846632797        4.5520450816        1.6097086907
 N       19.5057269382        3.6268900188        3.1645477117
 N       22.1328840392        4.5013745094        1.7009764163
Ga       17.5718111623        0.9057557671        4.7718742828
Ga       20.2359499858        1.8171769131        3.1816021478
 N       19.5424113411        0.8868460241        4.7416962751
 N       22.2207098377        1.8025084677        3.1913413803
Ga       17.5344917339        3.6591245234        6.3089423641
Ga       20.1569496630        4.5542616790        4.7176490705
 N       19.4898556861        3.5850999353        6.2411845211
 N       22.1001976305        4.4762619993        4.6584589302
Ga       17.5926608590        0.8879305088        7.8867841219
Ga       20.2193627839        1.7896634981        6.3028265482
 N       19.5536582322        0.9213307803        7.9002598049
 N       22.1855656205        1.7121205371        6.3020932397
In       17.5552697975        3.7251074341        9.5567881716
In       20.2022143284        4.6049414802        7.9206739672
 N       19.6405518557        3.6506264490        9.6612156423
 N       22.2810888767        4.6707785067        8.0282865614
Ga       17.6558220217        0.9338365754       11.0930569899
Ga       20.2664876717        1.8515756143        9.4649878243
 N       19.5829201108        0.9793400821       11.0221680467
 N       22.2205019968        1.8992077421        9.4260484129
Ga       17.5886315096        3.7338945166       12.7617643102
Ga       20.2619688051        4.6672946751       11.1694423357
 N       19.5455100999        3.8612695176       12.7784906594
 N       22.2247337558        4.6690799174       11.0703162397
Ga       17.5745737622        0.9687603343       14.3507221867
In       20.2314100242        1.8797281019       12.7957838409
 N       19.5259158072        0.8784738848       14.4897273777
 N       22.3176132489        1.7732594708       12.9113078626
Ga       17.5684562980        3.6641571926       15.9505292775
Ga       20.2351156577        4.6399422174       14.4040761074
 N       19.5407585188        3.6666686966       15.9502078326
 N       22.1762093326        4.7306643370       14.3985171755
In       17.5892279534        0.9264345346       17.5715898597
Ga       20.2526171966        1.8481586563       15.9790467920
 N       19.7052910039        0.9231389015       17.5863028253
 N       22.1988810166        1.7749419184       15.8695747539
Ga       17.5679821318        3.6674079866       19.1703284064
Ga       20.1642437522        4.5641210792       17.5573155694
 N       19.5323287960        3.6470825163       19.1544228100
 N       22.0949268374        4.5732802964       17.5704953949
Ga       17.5733392998        6.3839519998        1.6406054815
Ga       20.2291508216        7.2978024102       -0.0049287034
 N       19.5350448101        6.3861211829        1.5878085210
 N       22.1642084200        7.4646267945       -0.0059311699
Ga       17.5063140843        9.1818761667        3.2349819706
In       20.2811842805       10.1462081891        1.5941325540
 N       19.4319483819        9.0680835858        3.1681476601
 N       22.3898150679       10.2184763772        1.4669384495
Ga       17.5355495320        6.4236817323        4.7880516315
Ga       20.1283795946        7.2834434007        3.1949339339
 N       19.5018920142        6.3933173528        4.8008695557
 N       22.0605823570        7.3483915532        3.1959256933
Ga       17.5286241017        9.2027108050        6.3809792928
In       20.1478577203       10.1490690432        4.7814940724
 N       19.4801588197        9.1471966064        6.4628339180
 N       22.2168396765       10.1739224485        4.7904032096
Ga       17.5190697116        6.4859088054        7.9271430350
Ga       20.1631876154        7.3411640235        6.3869688123
 N       19.4677298633        6.5424456367        7.9814299310
 N       22.1147375228        7.3016918817        6.4997547579
Ga       17.5686359933        9.1894319553        9.4948762161
Ga       20.1985114817       10.1409166305        7.9509489369
 N       19.5168976225        9.1660486741        9.4613317541
 N       22.1559621695       10.2148353762        8.0292786847
Ga       17.5646145607        6.4928260185       11.1200810609
Ga       20.2272955888        7.3808801675        9.5560732136
 N       19.5424677851        6.4761736295       11.1443915805
 N       22.2093590335        7.4209496194        9.5876178718
Ga       17.6081752477        9.1996321308       12.7098150455
In       20.2597710641       10.1376449954       11.1528603865
 N       19.5669426521        9.1229704486       12.8590968277
 N       22.3733132998       10.2159076960       11.0820802864
In       17.5618613318        6.4393890413       14.3424916820
Ga       20.2435491865        7.3197095198       12.7607610695
 N       19.6649825102        6.4611384268       14.3853140791
 N       22.1941513228        7.2657415866       12.7599013188
In       17.6133398325        9.1904333467       15.9515668656
Ga       20.2992225560       10.0546022160       14.3901956738
 N       19.7201501887        9.1745762054       15.9844446973
 N       22.2526330841       10.1876235469       14.4610351151
Ga       17.5909671455        6.3547877461       17.5760986501
Ga       20.3053290445        7.3449353380       15.9747161024
 N       19.5647035956        6.4082274545       17.5322492111
 N       22.2532874653        7.4374286927       15.8637958914
In       17.5832112737        9.1818429302       19.1902954014
Ga       20.3470140426       10.1055389280       17.5458999665
 N       19.6699715961        9.1172944080       19.0356658766
 N       22.3116891591       10.1294026453       17.5193320271
Ga       17.5494259624       12.0149690390        1.6513962127
Ga       20.2444006800       12.8947913978        0.0318407360
 N       19.5030133432       12.0919192868        1.6222034025
 N       22.2111926223       12.7884967938       -0.0312877599
Ga       17.5645372374       14.7477277072        3.1989448683
Ga       20.2245157179       15.6706049662        1.6098382425
 N       19.5307459648       14.7754502288        3.1786874930
 N       22.1888982183       15.7143470398        1.6950078370
Ga       17.5482381046       11.9992371251        4.7768732370
Ga       20.2162165241       12.9797052665        3.1704024618
 N       19.5055455568       12.1292225955        4.7632472588
 N       22.1780186503       12.9880456494        3.0593750711
Ga       17.5658815694       14.7237100105        6.3254797375
Ga       20.2400699945       15.6474098938        4.7525815510
 N       19.5315135669       14.7501619025        6.3221912016
 N       22.2180609227       15.6219515197        4.7510813420
Ga       17.5538952861       11.9623586779        7.9266808103
Ga       20.2064903581       12.9386975302        6.3757858215
 N       19.5194890971       11.9601982721        7.9100830269
 N       22.1701689373       12.9791495636        6.4721350064
Ga       17.6004457333       14.7144791085        9.4410556952
Ga       20.2154085608       15.6672202063        7.8728470598
 N       19.5552441666       14.6742716054        9.3892302609
 N       22.1672448361       15.6963246374        7.8425546367
Ga       17.5534139247       11.9877750790       11.0845763853
Ga       20.2307431105       12.8715883318        9.4592278556
 N       19.4846464234       12.0687395104       11.0248719665
 N       22.1943975774       12.7991914057        9.5607820138
In       17.5799984675       14.7474845169       12.7785524337
In       20.2990699068       15.6035003406       11.1227688788
 N       19.6612784708       14.8103087675       12.9305182809
 N       22.3870673836       15.5530419643       11.2945996359
Ga       17.5689107302       11.8610570752       14.3136104891
In       20.3154741647       12.8541994622       12.7684153267
 N       19.5062576504       11.7887705064       14.3577876908
 N       22.4256481910       12.8558281221       12.7951707510
In       17.5886893611       14.7387124413       15.9657358988
Ga       20.3571585101       15.7113557450       14.4514109676
 N       19.6837545192       14.8249199901       15.9959091694
 N       22.3214777686       15.6265639727       14.4160063539
Ga       17.5991871514       11.9589261823       17.6200715679
In       20.3152028127       12.8354776115       15.9833809275
 N       19.5549982292       11.8728979429       17.6828462832
 N       22.4407823178       12.8604781905       15.9604216298
Ga       17.5895243445       14.7066943889       19.2111071621
Ga       20.2870994243       15.6528407664       17.5952100718
 N       19.5734266057       14.7312192707       19.1566154603
 N       22.2152355925       15.5544369552       17.4680377445
Ga       22.9526221908        0.9014033589        1.6535445358
Ga       25.7236220634        1.8153318272        0.0289258448
 N       24.9405735320        0.9123595769        1.5710183295
 N       27.6833701148        1.8447724688        0.0174267978
Ga       22.9347031348        3.5993588758        3.1815659389
Ga       25.7272145016        4.5403502647        1.6011855340
 N       24.9328215482        3.6498193851        3.1558184524
 N       27.6978144660        4.5795139712        1.6207036566
Ga       22.9129045823        0.8573532652        4.7276047106
Ga       25.6138115010        1.8317880434        3.1311139920
 N       24.8871978544        0.8464839245        4.6417527231
 N       27.5835605246        1.8990582743        3.0893772795
In       22.9457250654        3.6517193685        6.3474939160
Ga       25.7274614552        4.5294025067        4.7044174283
 N       25.0458701358        3.7746130818        6.3170095789
 N       27.7001924512        4.5559187307        4.7422519780
Ga       22.8717951575        0.8988853806        7.8985951331
In       25.6557978791        1.8018261419        6.3382935759
 N       24.8156628819        0.7774801219        7.9371491734
 N       27.7542194733        1.9199670614        6.4747161333
Ga       22.9194729843        3.7132480602        9.5286142622
Ga       25.6495086265        4.6442853008        7.9098629894
 N       24.8746746469        3.7493699192        9.4369674515
 N       27.6260410144        4.6681304932        7.8654373317
In       22.9848110529        0.9573589206       11.1493944329
In       25.6587482714        1.8200984123        9.5369046094
 N       25.0592797216        1.0171659813       11.3397036984
 N       27.7557158606        1.6767466119        9.5860618594
In       22.9868934781        3.7215696759       12.7817160725
In       25.6333163367        4.6022874224       11.1957428602
 N       25.0824608802        3.6216656604       12.9431502154
 N       27.7330151612        4.5225487867       11.2759039796
Ga       23.0272535839        0.8527973764       14.4146392944
Ga       25.7600330614        1.8262467902       12.9144347914
 N       25.0023387102        0.8947018008       14.4418013781
 N       27.7296862071        1.8227019071       12.8386209909
In       23.0225087542        3.6729589405       15.9626664383
Ga       25.7017361751        4.6320869871       14.4401588452
 N       25.1566545931        3.6635864538       16.0151927144
 N       27.6421533975        4.6719989839       14.3309123095
In       22.9954616279        0.8949227878       17.5722806544
Ga       25.7218668772        1.8098270984       15.9912052556
 N       25.1177793590        0.9067027799       17.5757870315
 N       27.6605184364        1.7225718106       15.9903292702
In       22.9915302736        3.6367570040       19.1746086397
Ga       25.7704942427        4.5835402876       17.5950780331
 N       25.1189188661        3.6436857818       19.1468830219
 N       27.7058710454        4.6430161264       17.6830805109
In       22.9551014397        6.4030789143        1.5876838413
Ga       25.7316208236        7.3235321850       -0.0421971807
 N       25.0767331058        6.3478076974        1.4750383052
 N       27.6955489244        7.3128222978        0.0159621137
In       22.9736204008        9.2011242359        3.1631909884
In       25.6627014595       10.1582692364        1.5473874149
 N       25.0523845747        9.2606865351        3.3074498603
 N       27.7588106351        9.9847288345        1.5843508496
In       22.9011514986        6.3704425905        4.8103708338
In       25.8145803121        7.3389377954        3.1508337471
 N       25.0118161125        6.2877858736        4.7327956902
 N       27.9188677935        7.3319788615        3.1926432211
In       22.9875688056        9.1999469272        6.4245665235
Ga       25.7456918312       10.2358159439        4.7795081527
 N       25.1047761518        9.3609217382        6.3612729535
 N       27.6829996218       10.2106833087        4.6641759017
Ga       22.8819127713        6.4666868828        8.0410261668
In       25.7117068955        7.3600220687        6.3615501445
 N       24.8246699990        6.3714238112        7.9556960589
 N       27.8100740114        7.2292859618        6.3389859389
Ga       22.8944548135        9.2516030009        9.5167045748
Ga       25.6594531328       10.2375818365        7.9645061625
 N       24.8362928498        9.3088143877        9.4268052271
 N       27.6273950218       10.2140549263        8.0611556232
Ga       22.8922388186        6.4841928737       11.1565662994
In       25.6236149317        7.3913634668        9.5691867195
 N       24.8448351114        6.5373532328       11.3127588206
 N       27.7292068239        7.3892967887        9.4248462580
In       22.9691186497        9.1961712372       12.7888732429
In       25.6438607525       10.1371154141       11.1706031165
 N       25.0561242640        9.1579182392       12.9173362342
 N       27.7457853257        9.9584447650       11.1892195092
Ga       22.9510300633        6.4757769265       14.3515468945
Ga       25.6329433254        7.3411695747       12.8823833181
 N       24.9317198388        6.4204328431       14.4221792381
 N       27.5897239034        7.3775671857       12.9090926398
Ga       22.9913994891        9.2210374459       15.9552457025
Ga       25.6840164911       10.1204589025       14.4412961912
 N       24.9701299947        9.1754821639       15.9723461872
 N       27.6410059163       10.1085240597       14.4085210463
In       22.9903931925        6.4403365336       17.5283249323
Ga       25.6796429592        7.3473751068       15.9602973509
 N       25.1141976056        6.3947918985       17.5358117324
 N       27.6520855273        7.3132101948       15.9786231973
Ga       22.9740329528        9.2100238156       19.0717779380
Ga       25.6463256630       10.0858437280       17.5431197792
 N       24.9302470213        9.0943526494       19.0303663902
 N       27.6096741025        9.9629084488       17.5809551695
Ga       22.9568722756       12.0420213560        1.5604246782
Ga       25.6149216680       12.9304992941       -0.0033710459
 N       24.9180941881       12.1242528317        1.5976045725
 N       27.5388285506       12.9979969716        0.0381146855
Ga       22.9302578521       14.7568119553        3.1771342676
Ga       25.6762325248       15.6779775732        1.6150650672
 N       24.9132926210       14.7492057364        3.1534358195
 N       27.6569177312       15.6835577479        1.6269922736
In       22.9648544298       12.0852852284        4.7657919508
Ga       25.6533313602       12.9651236270        3.1818825055
 N       25.0786237870       12.0380357308        4.7642841381
 N       27.6125989473       12.9617870793        3.2691768088
Ga       22.9174819204       14.7538941762        6.3392760547
Ga       25.5900082901       15.6130271615        4.7337700630
 N       24.9028718924       14.7197933257        6.3174152797
 N       27.5555410224       15.5554173349        4.7542574592
Ga       22.9116846696       11.9932472205        7.9702282842
Ga       25.6485139725       12.9230035957        6.3733404694
 N       24.8973635885       12.0119584746        7.9317518187
 N       27.6266129533       12.8926369664        6.3657140368
In       22.9788004228       14.7177850684        9.4982128289
Ga       25.6525970391       15.6279626648        7.8522625552
 N       25.0826893943       14.7029449535        9.4284680448
 N       27.6241075292       15.7124756160        7.8083873221
Ga       22.9973419109       12.0280390668       11.1450300080
Ga       25.6125913688       12.8802657697        9.5034898569
 N       24.9518333803       12.1218775502       11.1614191984
 N       27.5443558292       12.8466535704        9.4526129368
Ga       23.0146034679       14.6857944961       12.8781673493
In       25.6887271928       15.6199333929       11.2174505458
 N       24.9555837660       14.6847819120       12.9371702052
 N       27.7752064027       15.6986513218       11.3093426242
Ga       23.0407855873       11.9431888093       14.3809644830
Ga       25.6417686815       12.8969146408       12.8185108431
 N       24.9966278653       11.9385601237       14.3899307827
 N       27.6013261419       12.9623071442       12.8604673896
Ga       23.0222394604       14.6979252167       15.9605192639
Ga       25.6722725873       15.6442362776       14.4453311039
 N       24.9905622507       14.7292414747       16.0108902773
 N       27.6350055396       15.6667343344       14.4032127451
Ga       23.0117026183       11.9331969553       17.5542667933
Ga       25.6243064438       12.8869022187       15.9751344670
 N       24.9866968106       11.9411909183       17.5697219269
 N       27.5763764731       12.9477193417       15.8950787438
In       22.9803596443       14.7173352469       19.1792832313
Ga       25.7335902512       15.6497529736       17.5567190255
 N       25.0902421283       14.7713630322       19.1436777242
 N       27.6941650060       15.6556981394       17.5658285349
Ga       28.3316756560        0.9445121738        1.5921903100
Ga       31.0336265978        1.8849914933        0.0347928993
 N       30.2930848775        1.0473035179        1.6137421913
 N       33.0074600129        1.8377396008        0.0203335241
Ga       28.3794154198        3.6621713598        3.1733962176
Ga       31.0487487434        4.5542058916        1.6054990521
 N       30.3568130518        3.6675531552        3.1968779190
 N       33.0161637908        4.5874844690        1.6087875442
In       28.3621175667        0.9141884424        4.7595316834
Ga       31.0541098189        1.8613043587        3.1910329618
 N       30.4792765549        0.9136146470        4.7731330278
 N       33.0194458930        1.8353717710        3.1900981580
Ga       28.3974872675        3.7215170642        6.3563946726
Ga       31.0658641590        4.5422754727        4.7827706241
 N       30.3765441342        3.6747343572        6.3607405719
 N       33.0301864316        4.5809958250        4.7869377321
Ga       28.4022757383        0.9073877270        7.9575656814
Ga       31.0680825205        1.8594757491        6.3609160967
 N       30.3513573252        1.0054727569        7.9356001162
 N       33.0332692705        1.8339233503        6.3848975575
In       28.3985567323        3.6453977925        9.5182649549
Ga       31.1007019619        4.5828366198        7.9176924847
 N       30.4944798698        3.6131045328        9.4522752285
 N       33.0586277146        4.5884059877        7.9662890523
Ga       28.4157092600        0.9270578168       11.2303538459
Ga       31.0921892322        1.8004875596        9.5242826047
 N       30.3633400940        0.8855218256       11.0717165015
 N       33.0560413967        1.8189951531        9.5678877443
Ga       28.3499417059        3.6619461461       12.8617950757
In       31.1000901530        4.5715893811       11.1912715131
 N       30.2859538301        3.7397737812       12.9177178866
 N       33.1936696482        4.5898586840       11.1777421046
Ga       28.3652456288        0.8828903169       14.4172219259
In       31.0638253772        1.8246872097       12.7993973247
 N       30.3225241649        0.8883867153       14.5076520723
 N       33.1702093454        1.8357438342       12.7776840316
In       28.4060197124        3.6699569178       15.9880464680
Ga       31.0777640612        4.6254803940       14.4145898351
 N       30.5114204147        3.6910915849       15.9938713031
 N       33.0415384852        4.6004939831       14.3664206612
Ga       28.3577964102        0.9141589487       17.5895166270
Ga       31.0687502537        1.8497888748       16.0089725038
 N       30.3130927946        1.0467367560       17.5937542552
 N       33.0342380808        1.8285939659       15.9744795677
Ga       28.3906478506        3.6651164853       19.1919910379
Ga       31.0676356479        4.6045242593       17.5915731211
 N       30.3631953018        3.6875451029       19.1561268622
 N       33.0282582420        4.5994133050       17.5683191064
Ga       28.4007831782        6.3893583509        1.5726800215
Ga       31.0527269927        7.3092735890        0.0006270647
 N       30.3478763566        6.3363600682        1.4991221696
 N       33.0228138486        7.3472841884        0.0141588700
Ga       28.4337276630        9.1997167483        3.1926697805
Ga       31.0840046693       10.1145730528        1.6115520621
 N       30.3756342221        9.3170368394        3.2000810972
 N       33.0470458484       10.1100491245        1.6060331079
Ga       28.4457568815        6.3473337076        4.7669562633
In       31.0631514823        7.3424845272        3.1883849807
 N       30.3848414952        6.3264239433        4.8785888832
 N       33.1644286554        7.3509305471        3.1980327644
In       28.3840364324        9.2259656747        6.3629041701
Ga       31.0851428459       10.1590755238        4.7635502836
 N       30.4786125783        9.1210341309        6.2509701361
 N       33.0463976653       10.1271073789        4.7837171387
Ga       28.4453096515        6.4087266126        7.9351741956
Ga       31.0959385179        7.2988514789        6.3842028676
 N       30.4141909933        6.3976004522        7.9703391794
 N       33.0568371111        7.3402374359        6.3820694667
Ga       28.3572600895        9.1856057621        9.5362330188
In       31.0763248162       10.1630687752        7.9380483096
 N       30.2939203732        9.0707407200        9.5110987957
 N       33.1785593608       10.1238649006        7.9758761257
In       28.3828066536        6.4914285550       11.1926079125
Ga       31.0928721555        7.3299654372        9.5355727564
 N       30.4832789832        6.5433561646       11.1737431148
 N       33.0587063169        7.3583745017        9.5668233783
Ga       28.3106663531        9.1519999791       12.8430070830
In       31.0723600642       10.0536099008       11.1643945463
 N       30.2556633808        9.0521060329       12.8012510445
 N       33.1843506063       10.1077694680       11.1727873961
Ga       28.3708404708        6.4477773957       14.4023105470
Ga       31.0746470453        7.3280240757       12.8148654053
 N       30.3534920526        6.4191482543       14.3816857085
 N       33.0448261282        7.3611518879       12.7825736305
Ga       28.2892140966        9.1334321425       15.9720269570
In       31.0450882310       10.0829160784       14.4019905462
 N       30.2347063927        9.0374410101       15.9959858655
 N       33.1679835220       10.1177485537       14.3713207215
Ga       28.3856197944        6.4396378570       17.5679784201
Ga       31.0333431708        7.2958299918       15.9695802887
 N       30.3614095625        6.4134580757       17.5561688182
 N       33.0116179189        7.3543804247       15.9631834917
Ga       28.3773762256        9.1044324945       19.1475382992
In       31.0752312005       10.0538864091       17.5980455284
 N       30.3306325618        9.0954810046       19.2734760860
 N       33.1786910059       10.1097369629       17.5591648494
In       28.3948407738       11.9637247423        1.6192834525
Ga       31.0984558187       12.8907314396        0.0838725196
 N       30.5064832331       11.9557960002        1.6434352930
 N       33.0605409943       12.8915045129        0.0221816470
Ga       28.3242015914       14.7387222067        3.2002997463
In       31.0331689300       15.6669084825        1.6345503340
 N       30.2907376144       14.6656854269        3.2970385193
 N       33.1455313204       15.6442788404        1.6089992346
Ga       28.3595007859       12.0128734206        4.7855032797
Ga       31.0563507257       12.8798362649        3.2446766818
 N       30.3445170435       11.9595074847        4.7980102656
 N       33.0249016803       12.8873429292        3.2152477617
Ga       28.3097883125       14.7051314825        6.3079832590
Ga       31.0493289237       15.6343336530        4.7775735137
 N       30.2796501613       14.6834172135        6.2600146114
 N       33.0185259729       15.6317603741        4.7916769970
Ga       28.3300827242       12.0073587699        7.9367966340
Ga       31.0235315642       12.9029965661        6.3476652027
 N       30.2970751123       12.1077012470        7.9495923729
 N       33.0048785165       12.8869949050        6.3844004723
In       28.3542259230       14.7595206652        9.5400873728
In       31.0713693518       15.6349640959        7.9384732073
 N       30.4583723041       14.6866574509        9.6753323344
 N       33.1700566319       15.6397313151        7.9766852257
In       28.3226519499       11.9626874629       11.1652342124
Ga       31.1036959895       12.9048890711        9.5177262943
 N       30.4132470492       12.0130687392       11.0376265814
 N       33.0655479107       12.8795347213        9.5649388348
Ga       28.3592554731       14.7598766229       12.8618131013
Ga       31.0746847602       15.6656948192       11.2026794873
 N       30.3168901284       14.8770133439       12.7993501597
 N       33.0452609135       15.6474358202       11.1880247723
Ga       28.2358630108       11.9616622604       14.3805788593
In       31.0660019732       12.9342947593       12.7717191004
 N       30.1649796887       11.9550662599       14.3655381774
 N       33.1806450066       12.8831836046       12.7752149509
Ga       28.2971505126       14.7494269730       15.9547333884
Ga       31.0450194367       15.6899816060       14.3797431054
 N       30.2419749202       14.7897896074       15.8600938872
 N       33.0247029629       15.6487493377       14.3768341666
In       28.3040890003       11.9393318547       17.5681183900
In       31.0677426494       12.8980905937       15.9680732914
 N       30.3961626649       11.9990318103       17.7038203789
 N       33.1829663336       12.8812318852       15.9579099640
Ga       28.2972619896       14.7532026380       19.1721549262
In       31.0358116051       15.6616934516       17.5706973725
 N       30.2416675823       14.6041326537       19.1785501215
 N       33.1538269025       15.6415119964       17.5591996607
Ga       33.6987522241        0.9291892745        1.6042428690
Ga       36.2981033541        1.8400659911        0.0177681059
 N       35.6539820866        0.9202875467        1.6073890768
 N       38.2529337166        1.8350209442        0.0159765984
Ga       33.6801445875        3.6688707683        3.1953426379
Ga       36.2918350241        4.5870443627        1.6071511212
 N       35.6401073782        3.6710842674        3.1993467411
 N       38.2480636695        4.5910520592        1.6081420560
Ga       33.6701626750        0.9074493114        4.7866379110
Ga       36.2891658680        1.8336182461        3.2039854502
 N       35.6347680091        0.9095566617        4.7919620253
 N       38.2465452428        1.8325548504        3.2031784236
Ga       33.6955109271        3.6668001777        6.3747140826
Ga       36.2980148271        4.5858493244        4.7906467880
 N       35.6525397709        3.6694920265        6.3827869064
 N       38.2528138341        4.5906820540        4.7938441162
Ga       33.7209367342        0.9238383879        7.9710824229
Ga       36.2968648057        1.8312475809        6.3798408506
 N       35.6712769933        0.9177628210        7.9786620654
 N       38.2525432542        1.8313727525        6.3865140770
Ga       33.7213583909        3.6601033377        9.5584468417
Ga       36.3036655348        4.5902996363        7.9750600456
 N       35.6738483848        3.6687214800        9.5701153059
 N       38.2584054504        4.5918098644        7.9809427130
Ga       33.7217659103        0.9081213184       11.1637303893
Ga       36.3132159312        1.8308865747        9.5748506792
 N       35.6750984084        0.9111595565       11.1688680240
 N       38.2650328117        1.8315919054        9.5778385928
Ga       33.7514134303        3.6834217993       12.7925543518
Ga       36.3084060302        4.5956808624       11.1709680084
 N       35.6933742192        3.6784936415       12.7801327382
 N       38.2627800732        4.5933277636       11.1729974574
Ga       33.7134193012        0.9063548251       14.3894441893
Ga       36.3089528408        1.8289348987       12.7739815680
 N       35.6686883899        0.9108200187       14.3766048975
 N       38.2631696035        1.8313004935       12.7708562252
Ga       33.6788772130        3.6767084523       15.9687095759
Ga       36.3049275971        4.5981387738       14.3776885830
 N       35.6416290997        3.6757365243       15.9641634494
 N       38.2592312473        4.5943250066       14.3694030392
Ga       33.7045380300        0.9294980528       17.5692017913
Ga       36.3007419173        1.8399752659       15.9660035396
 N       35.6605033704        0.9227369916       17.5605011115
 N       38.2563836359        1.8355362437       15.9617271012
Ga       33.6761909678        3.6710479171       19.1541367682
Ga       36.2861697050        4.5937270869       17.5581226539
 N       35.6371956965        3.6728078782       19.1500883094
 N       38.2453172287        4.5930428040       17.5559282664
Ga       33.7023669970        6.4168676204        1.5905125522
Ga       36.3013054254        7.3469323594        0.0117623455
 N       35.6566575137        6.4255114106        1.6001329761
 N       38.2557847495        7.3517098190        0.0136195445
Ga       33.7181968034        9.2093015095        3.1989493535
Ga       36.3054554426       10.1201189332        1.6101405245
 N       35.6688788072        9.2013005988        3.2013762301
 N       38.2595120343       10.1177585695        1.6090844167
Ga       33.7145838934        6.4118831729        4.8003238625
Ga       36.2962420897        7.3513577269        3.1986523449
 N       35.6661531458        6.4246767882        4.7981434627
 N       38.2523649339        7.3535397266        3.2007395079
Ga       33.7148527324        9.1857616637        6.3647643733
Ga       36.3039452837       10.1225047797        4.7929014837
 N       35.6689947596        9.1908519639        6.3781636928
 N       38.2581986516       10.1188133297        4.7949214987
Ga       33.7067292327        6.4286704022        7.9787373642
Ga       36.3065884548        7.3503128508        6.3878016376
 N       35.6636409995        6.4313330942        7.9820208687
 N       38.2601898414        7.3536129480        6.3888526987
Ga       33.7575392694        9.1824035899        9.5692454980
Ga       36.3107513343       10.1203593969        7.9732276273
 N       35.7012205101        9.1897334337        9.5734070838
 N       38.2648514532       10.1181857738        7.9804745456
Ga       33.7197310976        6.4563178604       11.1764851225
Ga       36.3187630887        7.3479765638        9.5743356579
 N       35.6747109613        6.4438013932       11.1745735261
 N       38.2700701449        7.3518769436        9.5774224783
Ga       33.7551471320        9.1818319997       12.7770300843
Ga       36.3281093972       10.1149101410       11.1721833941
 N       35.7017739456        9.1884205223       12.7713058576
 N       38.2784077152       10.1163138969       11.1735275718
Ga       33.6910793612        6.4381207972       14.3749522586
Ga       36.3173844827        7.3466311929       12.7753195574
 N       35.6529830776        6.4352043125       14.3688293448
 N       38.2698379984        7.3507581897       12.7715043364
Ga       33.7431840513        9.1719156839       15.9623173696
Ga       36.3351342271       10.1082281337       14.3682986276
 N       35.6913093879        9.1840438133       15.9620042334
 N       38.2832701728       10.1135816093       14.3661239501
Ga       33.6790546205        6.4364339874       17.5535314363
Ga       36.3075057102        7.3434842561       15.9631463907
 N       35.6413991042        6.4338358904       17.5540142802
 N       38.2617692860        7.3500299778       15.9612904079
Ga       33.7175442534        9.1761464753       19.1649782406
Ga       36.3159034669       10.1099689739       17.5617367497
 N       35.6702255721        9.1867172159       19.1582024546
 N       38.2688638205       10.1141407158       17.5568791992
Ga       33.6886330332       11.9600491464        1.6194915399
Ga       36.3193553568       12.8768095955        0.0274057018
 N       35.6511135103       11.9581564656        1.6138727290
 N       38.2701533670       12.8787068550        0.0196553746
Ga       33.7045836609       14.7158245228        3.2142092422
Ga       36.3019889741       15.6467808922        1.6154510498
 N       35.6587689020       14.7175638378        3.2084582638
 N       38.2566752596       15.6438373489        1.6116611959
Ga       33.6848186497       11.9664420774        4.8010418153
Ga       36.2971867407       12.8775048981        3.2058225280
 N       35.6463797656       11.9599238397        4.7973166502
 N       38.2536970502       12.8790267419        3.2035039016
Ga       33.7056010742       14.7100849350        6.3690465373
Ga       36.2971537886       15.6451488769        4.7947687918
 N       35.6600672164       14.7162586411        6.3807842355
 N       38.2525623428       15.6430921440        4.7959048118
Ga       33.7210267711       11.9819188631        7.9659929425
Ga       36.3070163346       12.8814164291        6.3811364644
 N       35.6741185891       11.9691727590        7.9760319220
 N       38.2605155679       12.8802464636        6.3866620166
Ga       33.7197284978       14.7199312686        9.5964552769
Ga       36.3003000132       15.6399067590        7.9807361360
 N       35.6738831791       14.7204961994        9.5862721171
 N       38.2566423727       15.6408589780        7.9828230532
Ga       33.7521491199       11.9665226205       11.1569120213
Ga       36.3211277213       12.8835508170        9.5710054809
 N       35.7002679237       11.9627000817       11.1660061591
 N       38.2722480940       12.8807881201        9.5757837954
Ga       33.7205906033       14.7459839904       12.7833193865
Ga       36.3162006546       15.6439569765       11.1753409780
 N       35.6771502859       14.7341156805       12.7739474624
 N       38.2688788913       15.6422355670       11.1738491774
Ga       33.7902348055       11.9558523652       14.3668114541
Ga       36.3279221228       12.8896736280       12.7649531312
 N       35.7272902641       11.9572380248       14.3656920350
 N       38.2789427858       12.8830896839       12.7677505819
Ga       33.7459742459       14.7352342021       15.9486465759
Ga       36.3235099017       15.6488217474       14.3648883733
 N       35.6943785617       14.7288898719       15.9550849477
 N       38.2741405513       15.6443549480       14.3646526181
Ga       33.7517763940       11.9665369688       17.5741128134
Ga       36.3332038076       12.8845121432       15.9666394055
 N       35.6987624530       11.9607112258       17.5644618201
 N       38.2819747356       12.8813689053       15.9628955238
Ga       33.7473818481       14.7138292302       19.1533453261
Ga       36.3140036876       15.6511328812       17.5564211072
 N       35.6916069210       14.7173035260       19.1509341134
 N       38.2667936766       15.6456103625       17.5557383321
Ga       38.8934462493        0.9143160209        1.6100406306
Ga       41.4899836109        1.8333028547        0.0154940484
 N       40.8484623320        0.9123338657        1.6089526847
 N       43.4443710381        1.8322297930        0.0146088739
Ga       38.8921989759        3.6711124977        3.2006660490
Ga       41.4886632777        4.5927703862        1.6083943013
 N       40.8472623416        3.6721048050        3.2017295468
 N       43.4432417694        4.5930573669        1.6083689689
Ga       38.8937621761        0.9119424763        4.7940761936
Ga       41.4891792197        1.8322236302        3.2024040970
 N       40.8485928677        0.9114199771        4.7956114077
 N       43.4435581731        1.8318780281        3.2025608309
Ga       38.8958716080        3.6709657289        6.3871817698
Ga       41.4893306717        4.5925499313        4.7953450521
 N       40.8503218898        3.6720472428        6.3895243101
 N       43.4437418613        4.5930090601        4.7963235032
Ga       38.8971309809        0.9113639832        7.9810011027
Ga       41.4903968293        1.8315533135        6.3893817326
 N       40.8516905117        0.9113946955        7.9836747002
 N       43.4446303094        1.8316039500        6.3905585496
Ga       38.9001570323        3.6734976147        9.5770590090
Ga       41.4924208288        4.5922245187        7.9836464710
 N       40.8540299809        3.6731701931        9.5789473368
 N       43.4462407841        4.5928013902        7.9849474068
Ga       38.9034349044        0.9134284845       11.1744327104
Ga       41.4926879968        1.8319072061        9.5783926881
 N       40.8567148842        0.9125827357       11.1746269707
 N       43.4466640181        1.8316873849        9.5795142361
Ga       38.8982945975        3.6743347699       12.7715650205
Ga       41.4937306555        4.5921553797       11.1745863027
 N       40.8531187468        3.6736332550       12.7702154859
 N       43.4475175294        4.5926702112       11.1747809494
Ga       38.9033221278        0.9162911635       14.3675582868
Ga       41.4941355939        1.8331066440       12.7698262755
 N       40.8567114743        0.9137934257       14.3655671843
 N       43.4478803283        1.8321233395       12.7696341532
Ga       38.8961392003        3.6749754327       15.9636702924
Ga       41.4930837045        4.5922724156       14.3656205413
 N       40.8510021608        3.6738205601       15.9608136655
 N       43.4470622812        4.5926991953       14.3647546246
Ga       38.8988302395        0.9166934806       17.5561461275
Ga       41.4931012060        1.8337121674       15.9606413469
 N       40.8529123369        0.9134999689       17.5547485408
 N       43.4469467113        1.8323372553       15.9596040927
Ga       38.8923598757        3.6743877167       19.1484320196
Ga       41.4911039363        4.5927774569       17.5549668420
 N       40.8476219225        3.6734782681       19.1482817000
 N       43.4452667517        4.5929649070       17.5540885948
Ga       38.8930090607        6.4311403152        1.6082029575
Ga       41.4910541137        7.3531034861        0.0150091170
 N       40.8481462819        6.4330165829        1.6085214050
 N       43.4452752612        7.3542062221        0.0144089675
Ga       38.8961687200        9.1944391289        3.2022616356
Ga       41.4925660058       10.1159817104        1.6093741237
 N       40.8508137744        9.1950015909        3.2025183156
 N       43.4464168290       10.1164691257        1.6087083872
Ga       38.8947610877        6.4318485166        4.7938671319
Ga       41.4896937460        7.3539579868        3.2018928408
 N       40.8495340319        6.4332438001        4.7954678191
 N       43.4441142224        7.3545543787        3.2023400427
Ga       38.8999037971        9.1953323038        6.3871144245
Ga       41.4920252096       10.1167474851        4.7955644245
 N       40.8538073804        9.1956591707        6.3894247048
 N       43.4460122844       10.1167805303        4.7963879976
Ga       38.9018712820        6.4317228575        7.9815330300
Ga       41.4919509878        7.3542266071        6.3889817357
 N       40.8551686364        6.4333617071        7.9836793293
 N       43.4459109999        7.3546557196        6.3903667792
Ga       38.9059583906        9.1953474791        9.5752371306
Ga       41.4949497048       10.1167993164        7.9831633601
 N       40.8590039071        9.1958326285        9.5779605361
 N       43.4484169133       10.1167570461        7.9847621134
Ga       38.9052133442        6.4328621204       11.1741980910
Ga       41.4951443322        7.3538302850        9.5785766947
 N       40.8581416780        6.4337196764       11.1743579389
 N       43.4485857686        7.3544275819        9.5796415164
Ga       38.9114931270        9.1924434516       12.7688492394
Ga       41.4981128973       10.1162756348       11.1733060947
 N       40.8632590746        9.1948547431       12.7690942929
 N       43.4510814408       10.1165180531       11.1743384164
Ga       38.9041103691        6.4323269364       14.3672887488
Ga       41.4971378895        7.3528684629       12.7699209873
 N       40.8571854335        6.4335920137       14.3654361898
 N       43.4501739136        7.3540309624       12.7697481860
Ga       38.9073195679        9.1908964561       15.9631961291
Ga       41.4984787971       10.1155307255       14.3653691553
 N       40.8599579692        9.1941631532       15.9607873486
 N       43.4514002734       10.1162503450       14.3647498702
Ga       38.8968050075        6.4302762416       17.5555972449
Ga       41.4950307385        7.3526438596       15.9608731395
 N       40.8514104901        6.4327445038       17.5546597537
 N       43.4484739809        7.3539820874       15.9597186483
Ga       38.9002414027        9.1924935854       19.1514291445
Ga       41.4960124839       10.1152843070       17.5557273113
 N       40.8540932140        9.1944711960       19.1495484056
 N       43.4492408153       10.1162024204       17.5543632066
Ga       38.9017791573       11.9574573472        1.6130724531
Ga       41.4946507184       12.8796556515        0.0162902599
 N       40.8550370192       11.9576086179        1.6101542926
 N       43.4481398384       12.8791043307        0.0148292851
Ga       38.8950547876       14.7203219137        3.2039855272
Ga       41.4907728917       15.6422561233        1.6099456395
 N       40.8499717652       14.7200977414        3.2029980661
 N       43.4450255008       15.6411999258        1.6089607774
Ga       38.8992110286       11.9586646748        4.7946099866
Ga       41.4925975823       12.8798260631        3.2031161548
 N       40.8530737745       11.9581143637        4.7959165603
 N       43.4463687826       12.8791864628        3.2027808280
Ga       38.8970736616       14.7217812121        6.3883587223
Ga       41.4903328199       15.6415192032        4.7961014381
 N       40.8516135847       14.7207004869        6.3899462449
 N       43.4446537994       15.6409041491        4.7965965465
Ga       38.9038628457       11.9593509844        7.9801869179
Ga       41.4931096502       12.8798846993        6.3893025178
 N       40.8570700786       11.9584182625        7.9834273515
 N       43.4469215565       12.8791682274        6.3905364565
Ga       38.9040316636       14.7231962904        9.5769209830
Ga       41.4930027063       15.6415728763        7.9834651056
 N       40.8573737291       14.7215249849        9.5785682555
 N       43.4468496107       15.6409193955        7.9847925577
Ga       38.9107191408       11.9600164420       11.1718061518
Ga       41.4965008143       12.8798892000        9.5778600446
 N       40.8628224510       11.9588620986       11.1735346749
 N       43.4497607186       12.8791237010        9.5793614947
Ga       38.9109870813       14.7246750024       12.7688729775
Ga       41.4967223753       15.6421588476       11.1733429442
 N       40.8628121171       14.7220165236       12.7692895801
 N       43.4498561299       15.6411254676       11.1742554241
Ga       38.9126691787       11.9592530831       14.3647028743
Ga       41.4995683308       12.8797726406       12.7689944527
 N       40.8644560636       11.9585375132       14.3645289371
 N       43.4521992668       12.8790320980       12.7694127372
Ga       38.9096832572       14.7250061980       15.9615811841
Ga       41.4975186491       15.6431558448       14.3649436113
 N       40.8616501960       14.7221135091       15.9602645383
 N       43.4504996786       15.6414963328       14.3645695188
Ga       38.9083788661       11.9565428613       17.5586281746
Ga       41.4982858323       12.8795493514       15.9606525887
 N       40.8606519704       11.9573975932       17.5555618083
 N       43.4511547413       12.8790015161       15.9596274012
Ga       38.9010673676       14.7230121367       19.1516565836
Ga       41.4946068877       15.6431162532       17.5557747001
 N       40.8547978607       14.7212693302       19.1495594548
 N       43.4481053555       15.6414950654       17.5544527850
Ga       44.0840808485        0.9115629289        1.6086319987
Ga       46.6778720535        1.8317644948        0.0143150401
 N       46.0381624991        0.9111055357        1.6084306808
 N       48.6317359223        1.8314609595        0.0141059555
Ga       44.0834595217        3.6725748565        3.2023299290
Ga       46.6774125638        4.5930758011        1.6084713374
 N       46.0376301398        3.6725277950        3.2025612885
 N       48.6313514718        4.5930291293        1.6084530782
Ga       44.0840364600        0.9112268995        4.7964243816
Ga       46.6773778811        1.8316387802        3.2026726769
 N       46.0381098897        0.9109825921        4.7968419708
 N       48.6313266070        1.8314187762        3.2027850189
Ga       44.0843372837        3.6724435824        6.3903508767
Ga       46.6773931169        4.5930217803        4.7967681062
 N       46.0383474821        3.6725008238        6.3910703926
 N       48.6313181108        4.5929999259        4.7970833327
Ga       44.0852825907        0.9114657946        7.9848569480
Ga       46.6777692949        1.8315470435        6.3910694692
 N       46.0391615800        0.9111293910        7.9855665753
 N       48.6316413348        1.8313859969        6.3914628154
Ga       44.0857035906        3.6726639415        9.5796914015
Ga       46.6780898154        4.5929399459        7.9854989523
 N       46.0395194321        3.6726371721        9.5801960127
 N       48.6319060543        4.5929546089        7.9859222883
Ga       44.0866547108        0.9120717743       11.1745160338
Ga       46.6785441417        1.8315932691        9.5800629780
 N       46.0403210663        0.9114014173       11.1748764694
 N       48.6322861467        1.8313794316        9.5804502425
Ga       44.0864240054        3.6730084254       12.7697991605
Ga       46.6788339645        4.5928761765       11.1748760437
 N       46.0401326340        3.6728047296       12.7697510462
 N       48.6325307429        4.5929238705       11.1750982316
Ga       44.0869675090        0.9124229485       14.3647457512
Ga       46.6790290076        1.8317089458       12.7696548187
 N       46.0405500349        0.9115343063       14.3645026462
 N       48.6326984473        1.8314099877       12.7697505584
Ga       44.0857742924        3.6730820521       15.9596674427
Ga       46.6789245780        4.5929014473       14.3645496111
 N       46.0395782063        3.6728113711       15.9592270472
 N       48.6325974523        4.5929267101       14.3644604665
Ga       44.0856017157        0.9121902031       17.5543747150
Ga       46.6787204460        1.8317830998       15.9593143578
 N       46.0394227564        0.9113937292       17.5538154881
 N       48.6324318816        1.8314402147       15.9590980214
Ga       44.0841724412        3.6728065970       19.1485142197
Ga       46.6781978202        4.5930011291       17.5538864301
 N       46.0382385089        3.6726520560       19.1481701653
 N       48.6319981400        4.5929859883       17.5536450134
Ga       44.0839892580        6.4336576948        1.6085781613
Ga       46.6781557978        7.3544882895        0.0143366438
 N       46.0380934559        6.4339790616        1.6084605628
 N       48.6319615290        7.3546496072        0.0141308618
Ga       44.0848805211        9.1953593125        3.2026465361
Ga       46.6782845363       10.1164756067        1.6085874122
 N       46.0388076916        9.1956818103        3.2027120760
 N       48.6320603982       10.1165175101        1.6084939860
Ga       44.0841674507        6.4337590524        4.7962210479
Ga       46.6776492613        7.3545887444        3.2026211549
 N       46.0382136421        6.4340115076        4.7967804867
 N       48.6315411646        7.3546838690        3.2027801789
Ga       44.0857267333        9.1956984252        6.3903332312
Ga       46.6782216335       10.1165643353        4.7968261541
 N       46.0394954807        9.1958329406        6.3911004574
 N       48.6320056723       10.1165419734        4.7971101908
Ga       44.0856768356        6.4338955790        7.9847070355
Ga       46.6780662023        7.3546196244        6.3910225593
 N       46.0394601342        6.4341011521        7.9855080538
 N       48.6318755571        7.3546690524        6.3914630184
Ga       44.0874822536        9.1957541117        9.5792838176
Ga       46.6789555955       10.1165724778        7.9854376661
 N       46.0409582990        9.1958965072        9.5800747045
 N       48.6326256927       10.1165143079        7.9859066285
Ga       44.0870546261        6.4337357510       11.1744580025
Ga       46.6789450380        7.3545239073        9.5800726584
 N       46.0406211858        6.4340894975       11.1748538196
 N       48.6326079117        7.3546265795        9.5804716417
Ga       44.0884582805        9.1956253158       12.7694938031
Ga       46.6797755437       10.1164818006       11.1747843115
 N       46.0417747763        9.1958883068       12.7696404935
 N       48.6332878290       10.1164835265       11.1750909056
Ga       44.0870544704        6.4335855486       14.3648994274
Ga       46.6793894773        7.3544168068       12.7697218112
 N       46.0406293110        6.4340415648       14.3645662844
 N       48.6329837017        7.3545937422       12.7697791931
Ga       44.0877542315        9.1952865807       15.9597619342
Ga       46.6798697893       10.1163999261       14.3645381944
 N       46.0411867946        9.1957372482       15.9592521290
 N       48.6333593580       10.1164653362       14.3644485032
Ga       44.0856164296        6.4336213378       17.5544562736
Ga       46.6790498993        7.3543832347       15.9593624174
 N       46.0394189463        6.4340217584       17.5538811284
 N       48.6327007893        7.3545847173       15.9591172507
Ga       44.0858804908        9.1951197523       19.1488630119
Ga       46.6791223838       10.1163968156       17.5539716959
 N       46.0396311353        9.1956248546       19.1482950846
 N       48.6327531700       10.1164809061       17.5536784362
Ga       44.0858063621       11.9577297789        1.6089831942
Ga       46.6787554291       12.8786989905        0.0143982857
 N       46.0395597633       11.9577154451        1.6085811972
 N       48.6324430787       12.8784676119        0.0141186556
Ga       44.0848640218       14.7203112756        3.2027579965
Ga       46.6780219386       15.6406928615        1.6086191557
 N       46.0387905284       14.7198409112        3.2027142869
 N       48.6318459942       15.6403157095        1.6084789390
Ga       44.0855473913       11.9579056505        4.7965930586
Ga       46.6782342234       12.8787149904        3.2027558475
 N       46.0393639916       11.9577799816        4.7969099278
 N       48.6320245898       12.8784780040        3.2028086230
Ga       44.0854223388       14.7203020985        6.3904746634
Ga       46.6779464243       15.6405923867        4.7968665412
 N       46.0392731803       14.7198622725        6.3911118466
 N       48.6317967063       15.6402811824        4.7971105022
Ga       44.0868470207       11.9581756076        7.9846650507
Ga       46.6785833652       12.8787143948        6.3910743158
 N       46.0404587412       11.9579254640        7.9855035848
 N       48.6323209138       12.8784707460        6.3914656136
Ga       44.0872100742       14.7205920980        9.5792551653
Ga       46.6786030379       15.6406068302        7.9854055134
 N       46.0407473056       14.7200316418        9.5800346058
 N       48.6323389217       15.6402931590        7.9858841985
Ga       44.0886198358       11.9582461944       11.1741353711
Ga       46.6794800402       12.8787035818        9.5799789271
 N       46.0419110747       11.9579991841       11.1747386548
 N       48.6330583979       12.8784670402        9.5804384467
Ga       44.0884895150       14.7208943106       12.7694311865
Ga       46.6793740886       15.6407145490       11.1747025704
 N       46.0417767480       14.7201851890       12.7696006447
 N       48.6329720383       15.6403172686       11.1750445421
Ga       44.0889427792       11.9580601291       14.3646487804
Ga       46.6800227094       12.8786797197       12.7695843199
 N       46.0421659741       11.9579542584       14.3644567313
 N       48.6334959067       12.8784442134       12.7697278719
Ga       44.0877609776       14.7208451081       15.9597675999
Ga       46.6794785755       15.6407850844       14.3645117321
 N       46.0411817627       14.7201392427       15.9592548181
 N       48.6330448315       15.6403233742       14.3644413755
Ga       44.0874808860       11.9578494575       17.5545597874
Ga       46.6796560819       12.8786917291       15.9593343160
 N       46.0409458029       11.9578113197       17.5538855227
 N       48.6331870849       12.8784593515       15.9590987196
Ga       44.0859031382       14.7205456099       19.1489702928
Ga       46.6787909684       15.6407830887       17.5539764741
 N       46.0396515074       14.7199510138       19.1483137246
 N       48.6324830631       15.6403453314       17.5536609261
Ga       49.2707094894        0.9108653894        1.6084959814
Ga       51.8635251145        1.8312630969        0.0140942275
 N       51.2245223828        0.9106708059        1.6085072781
 N       53.8172784050        1.8311418437        0.0140926083
Ga       49.2704855191        3.6724360861        3.2027809156
Ga       51.8634370467        4.5929260507        1.6085261750
 N       51.2243417017        3.6723580267        3.2029042748
 N       53.8172140027        4.5928620341        1.6085620071
Ga       49.2706746100        0.9108376885        4.7971017228
Ga       51.8634313622        1.8312693395        3.2029253973
 N       51.2244905939        0.9106743239        4.7973160304
 N       53.8172079510        1.8311485431        3.2030196395
Ga       49.2706644536        3.6724466311        6.3914428244
Ga       51.8634140379        4.5929123866        4.7973126460
 N       51.2244805324        3.6723589605        6.3917222462
 N       53.8171952396        4.5928530793        4.7974757609
Ga       49.2710016983        0.9109066918        7.9859004877
Ga       51.8634934780        1.8312574607        6.3917478989
 N       51.2247613508        0.9107021603        7.9862070316
 N       53.8172499608        1.8311395765        6.3919458706
Ga       49.2710771159        3.6724904617        9.5804425521
Ga       51.8635411717        4.5928900441        7.9861899917
 N       51.2248063656        3.6723896085        9.5807081093
 N       53.8172872443        4.5928401821        7.9864166243
Ga       49.2713751624        0.9109880380       11.1750700835
Ga       51.8636826357        1.8312454661        9.5807235903
 N       51.2250585743        0.9107449493       11.1752830103
 N       53.8174038379        1.8311420081        9.5809477627
Ga       49.2713434624        3.6725483165       12.7697786679
Ga       51.8637085374        4.5928925758       11.1752768408
 N       51.2250245199        3.6724246771       12.7698769607
 N       53.8174226913        4.5928401768       11.1754711346
Ga       49.2714138887        0.9110075711       14.3644651270
Ga       51.8637814749        1.8312474085       12.7698834027
 N       51.2250908028        0.9107453181       14.3644700103
 N       53.8174732937        1.8311451228       12.7700101436
Ga       49.2711738149        3.6725443994       15.9591431471
Ga       51.8637300784        4.5929003199       14.3644958429
 N       51.2248887069        3.6724186281       15.9590657346
 N       53.8174371470        4.5928359916       14.3645630555
Ga       49.2710895921        0.9109578707       17.5536900279
Ga       51.8637183692        1.8312518399       15.9590687704
 N       51.2248178539        0.9107263351       17.5535857438
 N       53.8174313222        1.8311373989       15.9590807259
Ga       49.2707421878        3.6725011517       19.1481364589
Ga       51.8636138808        4.5929023532       17.5536264462
 N       51.2245465017        3.6723817796       19.1480755647
 N       53.8173478731        4.5928420675       17.5536191121
Ga       49.2706884133        6.4340227023        1.6085203994
Ga       51.8635912125        7.3546134575        0.0141070445
 N       51.2244971546        6.4340355343        1.6085150238
 N       53.8173365181        7.3545714541        0.0141055718
Ga       49.2708458512        9.1957506504        3.2028238728
Ga       51.8636275939       10.1164080292        1.6085413542
 N       51.2246282190        9.1957682665        3.2029141746
 N       53.8173594311       10.1163374018        1.6085766666
Ga       49.2706374867        6.4340153178        4.7970962953
Ga       51.8634736952        7.3546203658        3.2029286708
 N       51.2244599881        6.4340215458        4.7973011238
 N       53.8172379422        7.3545768438        3.2030201218
Ga       49.2710331324        9.1957763203        6.3914452430
Ga       51.8635964760       10.1164139829        4.7973171004
 N       51.2247735943        9.1957761136        6.3917218387
 N       53.8173399918       10.1163366222        4.7974748231
Ga       49.2709927072        6.4340463242        7.9858922145
Ga       51.8635464383        7.3546032013        6.3917231651
 N       51.2247398760        6.4340378435        7.9861828942
 N       53.8172952259        7.3545816309        6.3919316999
Ga       49.2714742470        9.1958317720        9.5804455087
Ga       51.8637505728       10.1164066277        7.9861911108
 N       51.2251379066        9.1958085609        9.5807106672
 N       53.8174527779       10.1163422330        7.9864262759
Ga       49.2713789303        6.4340844225       11.1750911150
Ga       51.8637311306        7.3545793968        9.5807084101
 N       51.2250556732        6.4340835787       11.1752858391
 N       53.8174338253        7.3545689424        9.5809313730
Ga       49.2717004440        9.1958396880       12.7697709131
Ga       51.8639187650       10.1163930454       11.1752923781
 N       51.2253140385        9.1958192631       12.7698805193
 N       53.8175919866       10.1163523737       11.1754662645
Ga       49.2714185292        6.4340860146       14.3644822850
Ga       51.8638427252        7.3545750958       12.7698959638
 N       51.2250891617        6.4340897144       14.3644925720
 N       53.8175257972        7.3545603572       12.7700224504
Ga       49.2715123322        9.1958130770       15.9591404390
Ga       51.8639292190       10.1163938052       14.3645036025
 N       51.2251616647        9.1958184446       15.9590699159
 N       53.8176069857       10.1163556986       14.3645688193
Ga       49.2710858967        6.4340522645       17.5537222749
Ga       51.8637736956        7.3545996171       15.9590930325
 N       51.2248198842        6.4340545230       17.5536063920
 N       53.8174762612        7.3545667661       15.9591090119
Ga       49.2711113417        9.1957661745       19.1481780929
Ga       51.8637714362       10.1164124002       17.5536228686
 N       51.2248433586        9.1957924742       19.1480927674
 N       53.8174778999       10.1163512313       17.5536116432
Ga       49.2710516387       11.9576851163        1.6085184046
Ga       51.8637063943       12.8782645003        0.0140876268
 N       51.2248000813       11.9575903471        1.6085039870
 N       53.8174219103       12.8781535801        0.0140968303
Ga       49.2708739388       14.7196102024        3.2027987440
Ga       51.8635716469       15.6400652103        1.6085173870
 N       51.2246520074       14.7194102339        3.2029027695
 N       53.8173199260       15.6399357404        1.6085669375
Ga       49.2710118257       11.9576890970        4.7971120219
Ga       51.8636052280       12.8782488229        3.2029267149
 N       51.2247571049       11.9575923674        4.7973118692
 N       53.8173366288       12.8781362960        3.2030212272
Ga       49.2710589669       14.7196396181        6.3914613875
Ga       51.8635411142       15.6400679895        4.7973237019
 N       51.2248032374       14.7194474414        6.3917561121
 N       53.8173011011       15.6399345823        4.7974803612
Ga       49.2713725933       11.9577466341        7.9858899494
Ga       51.8636870636       12.8782648877        6.3917274963
 N       51.2250599140       11.9576382790        7.9861980165
 N       53.8174087338       12.8781381666        6.3919487283
Ga       49.2714637820       14.7197438217        9.5804247606
Ga       51.8637147659       15.6400823151        7.9862106910
 N       51.2251420522       14.7195196506        9.5807299401
 N       53.8174310737       15.6399358134        7.9864434182
Ga       49.2717572683       11.9577881668       11.1750489891
Ga       51.8638795745       12.8782814362        9.5807165205
 N       51.2253665422       11.9576652919       11.1752696892
 N       53.8175682930       12.8781483902        9.5809491890
Ga       49.2716797726       14.7197898881       12.7697476158
Ga       51.8638911996       15.6400927294       11.1752910519
 N       51.2253171820       14.7195458309       12.7698675567
 N       53.8175716118       15.6399518382       11.1754720016
Ga       49.2717857596       11.9577998907       14.3644603780
Ga       51.8639740041       12.8782820044       12.7698770631
 N       51.2253855117       11.9576754912       14.3644659180
 N       53.8176453957       12.8781586873       12.7700041254
Ga       49.2715142381       14.7197634543       15.9591203685
Ga       51.8639073630       15.6400804320       14.3644796928
 N       51.2251719835       14.7195220230       15.9590325192
 N       53.8175888335       15.6399439047       14.3645443351
Ga       49.2714349949       11.9577375307       17.5536994108
Ga       51.8638824850       12.8782762631       15.9590723707
 N       51.2250986284       11.9576421249       17.5535831069
 N       53.8175633226       12.8781619805       15.9590899577
Ga       49.2711057670       14.7196637584       19.1481373002
Ga       51.8637260522       15.6400866408       17.5535963419
 N       51.2248398551       14.7194572636       19.1480520811
 N       53.8174381142       15.6399372704       17.5535993326
Ga       54.4561247165        0.9105565362        1.6085759846
Ga       57.0486988237        1.8310199896        0.0141767853
 N       56.4098633222        0.9104489660        1.6086619733
 N       59.0024380574        1.8309279644        0.0142653011
Ga       54.4560867722        3.6722735467        3.2030330791
Ga       57.0486953516        4.5927414452        1.6086741898
 N       56.4098334575        3.6721926760        3.2031511364
 N       59.0024277278        4.5926754732        1.6087860960
Ga       54.4561217337        0.9105620525        4.7974918345
Ga       57.0486836058        1.8310333707        3.2031539027
 N       56.4098615886        0.9104633252        4.7976246446
 N       59.0024207323        1.8309550600        3.2032745495
Ga       54.4561122047        3.6722671004        6.3919501466
Ga       57.0486937295        4.5927614381        4.7976534414
 N       56.4098531532        3.6722158102        6.3921320683
 N       59.0024322580        4.5926996326        4.7977990422
Ga       54.4561837481        0.9105709238        7.9864495027
Ga       57.0486995779        1.8310528014        6.3921292057
 N       56.4099175476        0.9104775454        7.9866255450
 N       59.0024418739        1.8309823978        6.3923006687
Ga       54.4561857323        3.6722963550        9.5809536360
Ga       57.0487189358        4.5927802367        7.9866450228
 N       56.4099182971        3.6722248794        9.5811364910
 N       59.0024447823        4.5927318944        7.9868163276
Ga       54.4562692712        0.9105957894       11.1754943771
Ga       57.0487494701        1.8310481869        9.5811586799
 N       56.4099864655        0.9104822748       11.1756670074
 N       59.0024830163        1.8309844272        9.5813223553
Ga       54.4562377229        3.6722968165       12.7700304504
Ga       57.0487565781        4.5927826862       11.1756602760
 N       56.4099632942        3.6722172606       12.7701643769
 N       59.0024763835        4.5927140052       11.1758097994
Ga       54.4562727826        0.9105957360       14.3645528321
Ga       57.0487873224        1.8310454594       12.7701835124
 N       56.4099852220        0.9104756518       14.3646592970
 N       59.0024999064        1.8309512184       12.7703153680
Ga       54.4561927711        3.6722902123       15.9591083948
Ga       57.0487522244        4.5927690418       14.3647063898
 N       56.4099100958        3.6721951900       15.9591801217
 N       59.0024665273        4.5926962751       14.3648133768
Ga       54.4561838364        0.9105675386       17.5536120600
Ga       57.0487520936        1.8310294327       15.9591840382
 N       56.4099143771        0.9104444852       17.5536584499
 N       59.0024784375        1.8309314356       15.9593000026
Ga       54.4561304744        3.6722695391       19.1481160367
Ga       57.0487050949        4.5927624822       17.5536870677
 N       56.4098613169        3.6721933316       19.1481664971
 N       59.0024280625        4.5926800402       17.5537854714
Ga       54.4561536443        6.4339779079        1.6085897657
Ga       57.0487188376        7.3544850570        0.0141852576
 N       56.4098954666        6.4339152237        1.6086701046
 N       59.0024358438        7.3544209236        0.0142835082
Ga       54.4561752386        9.1957010135        3.2030393291
Ga       57.0487073689       10.1162566264        1.6086774629
 N       56.4099067528        9.1956497272        3.2031498513
 N       59.0024321474       10.1161718497        1.6087730757
Ga       54.4561209688        6.4339782638        4.7974857503
Ga       57.0487218371        7.3544815643        3.2031792843
 N       56.4098614402        6.4339213705        4.7976471995
 N       59.0024476257        7.3544342515        3.2032947258
Ga       54.4561851167        9.1957243832        6.3919668280
Ga       57.0487110466       10.1162633201        4.7976496849
 N       56.4099121234        9.1956814563        6.3921389261
 N       59.0024369618       10.1162022894        4.7977835545
Ga       54.4561689117        6.4339884337        7.9864379836
Ga       57.0487207723        7.3545037892        6.3921510083
 N       56.4098977992        6.4339466783        7.9866441214
 N       59.0024468173        7.3544567913        6.3923009059
Ga       54.4562532610        9.1957402838        9.5809465739
Ga       57.0487535001       10.1162695961        7.9866444815
 N       56.4099642736        9.1957094715        9.5811459261
 N       59.0024647735       10.1162106794        7.9867843796
Ga       54.4562403612        6.4340038403       11.1754826321
Ga       57.0487413652        7.3545221097        9.5811629952
 N       56.4099534863        6.4339549176       11.1756558706
 N       59.0024556615        7.3544715247        9.5813058129
Ga       54.4562947911        9.1957480344       12.7700306841
Ga       57.0487829237       10.1162899990       11.1756727184
 N       56.4099978439        9.1957082440       12.7701708812
 N       59.0024916894       10.1162217447       11.1757999828
Ga       54.4562553491        6.4339925452       14.3645823716
Ga       57.0487553720        7.3545200240       12.7701885202
 N       56.4099582137        6.4339425457       14.3646836145
 N       59.0024722918        7.3544578050       12.7703043803
Ga       54.4562803185        9.1957413205       15.9591146717
Ga       57.0487865101       10.1162779071       14.3646946540
 N       56.4099779796        9.1956821193       15.9591722318
 N       59.0025021005       10.1161923041       14.3648055595
Ga       54.4562030489        6.4339828801       17.5536331820
Ga       57.0487447727        7.3545021969       15.9592056788
 N       56.4099114894        6.4339281927       17.5536847039
 N       59.0024586388        7.3544456321       15.9593026102
Ga       54.4562036323        9.1957240332       19.1481129164
Ga       57.0487553069       10.1162497190       17.5536872676
 N       56.4099259088        9.1956615118       19.1481718278
 N       59.0024723377       10.1161764431       17.5537845516
Ga       54.4561861629       11.9575002448        1.6085767274
Ga       57.0487321086       12.8780245572        0.0141925978
 N       56.4099088083       11.9574418133        1.6086654483
 N       59.0024535991       12.8779350893        0.0142777414
Ga       54.4561694535       14.7192983717        3.2030334636
Ga       57.0486971953       15.6398107774        1.6086779287
 N       56.4098979711       14.7192190216        3.2031491724
 N       59.0024221980       15.6397318756        1.6087696483
Ga       54.4561888622       11.9575000378        4.7974917139
Ga       57.0487055068       12.8780416386        3.2031593021
 N       56.4099127572       11.9574534000        4.7976333041
 N       59.0024251602       12.8779645977        3.2032803728
Ga       54.4561973357       14.7193120113        6.3919725060
Ga       57.0486987955       15.6398210549        4.7976448551
 N       56.4099205677       14.7192299005        6.3921238530
 N       59.0024217449       15.6397546489        4.7977812032
Ga       54.4562470623       11.9575111383        7.9864519224
Ga       57.0487358186       12.8780478213        6.3921385309
 N       56.4099610819       11.9574582516        7.9866274513
 N       59.0024542966       12.8779866833        6.3922776354
Ga       54.4562850819       14.7193433701        9.5809650672
Ga       57.0487489391       15.6398239790        7.9866331079
 N       56.4099926277       14.7192512603        9.5811384662
 N       59.0024732196       15.6397586306        7.9867997226
Ga       54.4563399032       11.9575404247       11.1754899469
Ga       57.0487723750       12.8780535648        9.5811493954
 N       56.4100300919       11.9574824672       11.1756553218
 N       59.0024846130       12.8779751814        9.5812916639
Ga       54.4563358564       14.7193581037       12.7700156762
Ga       57.0487971110       15.6398262396       11.1756699646
 N       56.4100340614       14.7192443756       12.7701589152
 N       59.0025172045       15.6397384496       11.1758097230
Ga       54.4563245231       11.9575623132       14.3645719229
Ga       57.0488055170       12.8780551694       12.7701828147
 N       56.4100263814       11.9574733689       14.3646718575
 N       59.0025172801       12.8779627299       12.7703200968
Ga       54.4562836398       14.7193451547       15.9590956030
Ga       57.0487929350       15.6398222521       14.3646825974
 N       56.4100001560       14.7192205278       15.9591673227
 N       59.0025118399       15.6397125476       14.3648081733
Ga       54.4562532384       11.9575350315       17.5536146214
Ga       57.0487908013       12.8780303459       15.9591926693
 N       56.4099698555       11.9574448497       17.5536763314
 N       59.0025066498       12.8779302465       15.9592922871
Ga       54.4561905493       14.7193256593       19.1481057135
Ga       57.0487511233       15.6397921502       17.5536960574
 N       56.4099189110       14.7192079881       19.1481825833
 N       59.0024854050       15.6396907037       17.5537750814
Ga       59.6412375442        0.9103560117        1.6087870784
Ga       62.2337779885        1.8308371925        0.0144319925
 N       61.5949556040        0.9102775302        1.6089224528
 N       64.1874959608        1.8307754028        0.0145538530
Ga       59.6412360565        3.6721078032        3.2033041663
Ga       62.2337720945        4.5926084497        1.6089256471
 N       61.5949490081        3.6720524952        3.2034156069
 N       64.1874870236        4.5925393529        1.6090213935
Ga       59.6412316214        0.9103829602        4.7978052397
Ga       62.2337379072        1.8308700883        3.2034459029
 N       61.5949544179        0.9103020703        4.7979508393
 N       64.1874601409        1.8307824728        3.2035579577
Ga       59.6412558911        3.6721423594        6.3923388799
Ga       62.2337669640        4.5926207157        4.7979355397
 N       61.5949715898        3.6720813677        6.3924547181
 N       64.1874823657        4.5925530039        4.7980356669
Ga       59.6412648605        0.9103953249        7.9868273081
Ga       62.2337614036        1.8308928661        6.3924718673
 N       61.5949880754        0.9103088495        7.9869745694
 N       64.1874823742        1.8307987719        6.3925678338
Ga       59.6412865851        3.6721445288        9.5813225418
Ga       62.2338063256        4.5926307446        7.9869627653
 N       61.5950023612        3.6720658820        9.5814480322
 N       64.1875178515        4.5925431097        7.9870569261
Ga       59.6413065803        0.9103761128       11.1758299591
Ga       62.2338025924        1.8308912808        9.5814843875
 N       61.5950182270        0.9102891712       11.1759527976
 N       64.1875120831        1.8307973847        9.5815938628
Ga       59.6413000937        3.6721141101       12.7703259432
Ga       62.2338141039        4.5926258640       11.1759563236
 N       61.5950231152        3.6720362454       12.7704405227
 N       64.1875223484        4.5925458630       11.1760606047
Ga       59.6412941212        0.9103427082       14.3648214970
Ga       62.2338267542        1.8308502774       12.7704673653
 N       61.5950155332        0.9102479971       14.3649419389
 N       64.1875447137        1.8307899394       12.7705824707
Ga       59.6412957098        3.6720884888       15.9593123159
Ga       62.2338306787        4.5926077594       14.3649469796
 N       61.5950164605        3.6720115771       15.9594204635
 N       64.1875333794        4.5925242511       14.3650402450
Ga       59.6412814623        0.9103211872       17.5537945123
Ga       62.2338116035        1.8308285946       15.9594505679
 N       61.5949985021        0.9102476901       17.5539257549
 N       64.1875285926        1.8307757030       15.9595631061
Ga       59.6412527819        3.6720870478       19.1482928336
Ga       62.2338120954        4.5925907391       17.5539331899
 N       61.5949760985        3.6720177958       19.1484159296
 N       64.1875204865        4.5925325677       17.5540322018
Ga       59.6412408230        6.4338382812        1.6087985826
Ga       62.2337822350        7.3543480799        0.0144238522
 N       61.5949602617        6.4337762051        1.6089043236
 N       64.1874998641        7.3542845906        0.0145132836
Ga       59.6412437474        9.1956028449        3.2033007178
Ga       62.2337572069       10.1161037372        1.6089263916
 N       61.5949575418        9.1955390396        3.2034180710
 N       64.1874742657       10.1160399510        1.6090308442
Ga       59.6412544096        6.4338622946        4.7978171499
Ga       62.2337602426        7.3543618749        3.2034090912
 N       61.5949674967        6.4338011523        4.7979092289
 N       64.1874709980        7.3542897256        3.2035191757
Ga       59.6412537176        9.1956178967        6.3922984926
Ga       62.2337554185       10.1161395027        4.7979197570
 N       61.5949696551        9.1955539463        6.3924141561
 N       64.1874691105       10.1160518449        4.7980361881
Ga       59.6412615520        6.4338817599        7.9868214961
Ga       62.2337778726        7.3543691227        6.3924265097
 N       61.5949829289        6.4338021131        7.9869256385
 N       64.1874907280        7.3543035223        6.3925224452
Ga       59.6412614049        9.1956326864        9.5813066216
Ga       62.2337669988       10.1161371173        7.9869329483
 N       61.5949749060        9.1955523657        9.5814187327
 N       64.1874818101       10.1160593195        7.9870552770
Ga       59.6412686443        6.4338688796       11.1758141922
Ga       62.2337881828        7.3543760492        9.5814409186
 N       61.5949849612        6.4337874437       11.1759237752
 N       64.1875105829        7.3543001563        9.5815391937
Ga       59.6412854153        9.1956180239       12.7703103832
Ga       62.2337993128       10.1161030690       11.1759370303
 N       61.5950007127        9.1955272799       12.7704183052
 N       64.1875216784       10.1160206207       11.1760411189
Ga       59.6412661143        6.4338557665       14.3648173848
Ga       62.2338028984        7.3543533941       12.7704285124
 N       61.5949858523        6.4337725237       14.3649095933
 N       64.1875251395        7.3542721993       12.7705200840
Ga       59.6412810639        9.1955944895       15.9593049698
Ga       62.2338034681       10.1160910464       14.3649299536
 N       61.5949913093        9.1955195495       15.9594096279
 N       64.1875160127       10.1160223428       14.3650459798
Ga       59.6412631936        6.4338331536       17.5538043080
Ga       62.2338049048        7.3543450799       15.9594167713
 N       61.5949837062        6.4337661144       17.5539045194
 N       64.1875223525        7.3542674961       15.9595182473
Ga       59.6412547841        9.1955761637       19.1482914292
Ga       62.2337898642       10.1160925346       17.5539286002
 N       61.5949690032        9.1955209818       19.1484099069
 N       64.1875067027       10.1160238469       17.5540311125
Ga       59.6412299291       11.9573443363        1.6087953445
Ga       62.2337799010       12.8778493371        0.0144206482
 N       61.5949550851       11.9572842099        1.6089153167
 N       64.1875008352       12.8777875695        0.0145229139
Ga       59.6412217430       14.7191407995        3.2032953440
Ga       62.2337481418       15.6396240830        1.6089270494
 N       61.5949476990       14.7190576917        3.2034211818
 N       64.1874594446       15.6395459256        1.6090484023
Ga       59.6412362012       11.9573705304        4.7977963529
Ga       62.2337489896       12.8778724846        3.2034318577
 N       61.5949458686       11.9573099019        4.7979207917
 N       64.1874661118       12.8778070116        3.2035448410
Ga       59.6412311262       14.7191644836        6.3922987914
Ga       62.2337357503       15.6396424350        4.7979448211
 N       61.5949531713       14.7190728764        6.3924462291
 N       64.1874580662       15.6395645597        4.7980531570
Ga       59.6412539567       11.9573785720        7.9867942357
Ga       62.2337509702       12.8778846641        6.3924363078
 N       61.5949673588       11.9573118992        7.9869288319
 N       64.1874750193       12.8777976199        6.3925613137
Ga       59.6412846947       14.7191395984        9.5813092577
Ga       62.2337661661       15.6396438258        7.9869725437
 N       61.5950028117       14.7190539047        9.5814587843
 N       64.1874790720       15.6395538623        7.9870834296
Ga       59.6412894889       11.9573834439       11.1758154667
Ga       62.2337921709       12.8778689442        9.5814559676
 N       61.5950077640       11.9572819651       11.1759407550
 N       64.1875098192       12.8777863679        9.5815797832
Ga       59.6413198583       14.7191208965       12.7703258108
Ga       62.2338155757       15.6396328980       11.1759770949
 N       61.5950389806       14.7190300852       12.7704603811
 N       64.1875313792       15.6395530086       11.1760990368
Ga       59.6413127759       11.9573415084       14.3648183432
Ga       62.2338233578       12.8778432107       12.7704564906
 N       61.5950245784       11.9572631287       14.3649341846
 N       64.1875374663       12.8777611725       12.7705495900
Ga       59.6413033992       14.7190838303       15.9593047625
Ga       62.2338225291       15.6395983606       14.3649766859
 N       61.5950117176       14.7190161275       15.9594386725
 N       64.1875410595       15.6395312047       14.3650800421
Ga       59.6412763842       11.9573353345       17.5538034202
Ga       62.2338191018       12.8778493103       15.9594401957
 N       61.5949882819       11.9572663094       17.5539085015
 N       64.1875344580       12.8777764351       15.9595488931
Ga       59.6412532195       14.7190988780       19.1483016481
Ga       62.2337952561       15.6396009509       17.5539370427
 N       61.5949752342       14.7190317832       19.1484139740
 N       64.1875074822       15.6395423482       17.5540588580
Ga       64.8262663230        0.9101749722        1.6090748005
Ga       67.4188156710        1.8307033409        0.0146658328
 N       66.7799889031        0.9101154826        1.6091490808
 N       69.3725356206        1.8306618384        0.0147102044
Ga       64.8262687809        3.6719465981        3.2035420207
Ga       67.4188004131        4.5924607445        1.6091406613
 N       66.7799868226        3.6718773943        3.2036297289
 N       69.3725086120        4.5924158837        1.6092100819
Ga       64.8262629457        0.9101932504        4.7980705803
Ga       67.4187950313        1.8306932956        3.2036508252
 N       66.7799799238        0.9101148935        4.7981340583
 N       69.3725079320        1.8306603387        3.2037048765
Ga       64.8262928007        3.6719631910        6.3925516524
Ga       67.4187777076        4.5924711848        4.7981425082
 N       66.7799995430        3.6718739874        6.3926406684
 N       69.3724870039        4.5924227028        4.7981894851
Ga       64.8262809951        0.9101916555        7.9870932178
Ga       67.4187827503        1.8306848692        6.3926445584
 N       66.7799993050        0.9101211862        7.9871576422
 N       69.3724944607        1.8306731485        6.3926880932
Ga       64.8263162550        3.6719563607        9.5815807267
Ga       67.4187922061        4.5924689652        7.9871517389
 N       66.7800257306        3.6718874437        9.5816632415
 N       69.3725044351        4.5924255390        7.9871959183
Ga       64.8263178120        0.9101909553       11.1760958148
Ga       67.4188097467        1.8307039442        9.5816588367
 N       66.7800249953        0.9101315118       11.1761629116
 N       69.3725192475        1.8306646935        9.5816899484
Ga       64.8263377862        3.6719526800       12.7705600867
Ga       67.4188430793        4.5924683311       11.1761601618
 N       66.7800430757        3.6718876215       12.7706466819
 N       69.3725516645        4.5924248796       11.1762016687
Ga       64.8263350030        0.9101706289       14.3650842085
Ga       67.4188306358        1.8307111773       12.7706620063
 N       66.7800523183        0.9101187142       14.3651555631
 N       69.3725398598        1.8306728348       12.7706810079
Ga       64.8263274137        3.6719424265       15.9595478641
Ga       67.4188622316        4.5924608991       14.3651350792
 N       66.7800402408        3.6718922165       15.9596241325
 N       69.3725709254        4.5924286279       14.3651904642
Ga       64.8263134086        0.9101739250       17.5540756075
Ga       67.4188406278        1.8307118524       15.9596548522
 N       66.7800345639        0.9101189878       17.5541470728
 N       69.3725565837        1.8306689589       15.9596972127
Ga       64.8263023466        3.6719402852       19.1485475273
Ga       67.4188377984        4.5924613679       17.5541425829
 N       66.7800156791        3.6718855343       19.1486315407
 N       69.3725537126        4.5924165299       17.5542109025
Ga       64.8262897760        6.4336979502        1.6090313987
Ga       67.4188275456        7.3541965845        0.0146413563
 N       66.7799995525        6.4336307869        1.6091276969
 N       69.3725335840        7.3541593718        0.0147020394
Ga       64.8262706886        9.1954488173        3.2035427776
Ga       67.4188123986       10.1159548574        1.6091462092
 N       66.7799828970        9.1953770417        3.2036297822
 N       69.3725216851       10.1159158436        1.6092008786
Ga       64.8262813825        6.4337114679        4.7980313117
Ga       67.4187848150        7.3542057830        3.2036389095
 N       66.7799824233        6.4336482752        4.7981333409
 N       69.3724914780        7.3541645675        3.2037011562
Ga       64.8262806654        9.1954745486        6.3925607371
Ga       67.4187942572       10.1159609763        4.7981429791
 N       66.7799945184        9.1953999232        6.3926475392
 N       69.3725132179       10.1159372602        4.7982034694
Ga       64.8262971267        6.4337143162        7.9870412488
Ga       67.4187885709        7.3542239590        6.3926385425
 N       66.7800088667        6.4336512397        7.9871410609
 N       69.3724992958        7.3541638590        6.3927013537
Ga       64.8263292915        9.1954537007        9.5815446408
Ga       67.4188070063       10.1159728105        7.9871531982
 N       66.7800434267        9.1953910886        9.5816484938
 N       69.3725156352       10.1159398894        7.9872002756
Ga       64.8263366365        6.4336940079       11.1760330705
Ga       67.4188312563        7.3542205863        9.5816446739
 N       66.7800474394        6.4336428961       11.1761321696
 N       69.3725352938        7.3541859331        9.5817196220
Ga       64.8263290611        9.1954368599       12.7705573393
Ga       67.4188416986       10.1159710024       11.1761606574
 N       66.7800444092        9.1953867877       12.7706525132
 N       69.3725553931       10.1159659119       11.1762047622
Ga       64.8263368584        6.4336758038       14.3650318561
Ga       67.4188660628        7.3542147492       12.7706406530
 N       66.7800503822        6.4336224323       14.3651234810
 N       69.3725851740        7.3541850389       12.7707150214
Ga       64.8263327309        9.1954278131       15.9595519226
Ga       67.4188664134       10.1159631938       14.3651513850
 N       66.7800530151        9.1953710684       15.9596341293
 N       69.3725835917       10.1159408352       14.3652004837
Ga       64.8263278629        6.4336887007       17.5540300698
Ga       67.4188528590        7.3541946823       15.9596364587
 N       66.7800357265        6.4336302913       17.5541295371
 N       69.3725707355        7.3541711972       15.9597012814
Ga       64.8263089699        9.1954460064       19.1485429542
Ga       67.4188426147       10.1159511700       17.5541450164
 N       66.7800231301        9.1953703555       19.1486338171
 N       69.3725544627       10.1159307749       17.5541999485
Ga       64.8262885684       11.9572064070        1.6090581093
Ga       67.4188136422       12.8777286220        0.0146526512
 N       66.7800070625       11.9571411464        1.6091526241
 N       69.3725276338       12.8776875979        0.0147221054
Ga       64.8262550500       14.7189703582        3.2035615829
Ga       67.4187966345       15.6394705904        1.6091667190
 N       66.7799698097       14.7189061844        3.2036479508
 N       69.3725193253       15.6394323497        1.6092237503
Ga       64.8262688426       11.9572147702        4.7980539602
Ga       67.4187840563       12.8777420060        3.2036651187
 N       66.7799923253       11.9571480190        4.7981509663
 N       69.3725020447       12.8776864568        3.2037164831
Ga       64.8262618696       14.7189722562        6.3925741873
Ga       67.4187855815       15.6394746704        4.7981478399
 N       66.7799881526       14.7189205803        6.3926508722
 N       69.3725012976       15.6394315467        4.7982045301
Ga       64.8262983989       11.9572121585        7.9870796383
Ga       67.4187895323       12.8777460677        6.3926601491
 N       66.7800206871       11.9571510761        7.9871580765
 N       69.3725093946       12.8776987557        6.3927123186
Ga       64.8262929643       14.7189591793        9.5815947409
Ga       67.4188069259       15.6394835378        7.9871542490
 N       66.7800099995       14.7189098270        9.5816518645
 N       69.3725180490       15.6394427316        7.9871966706
Ga       64.8263294312       11.9571745788       11.1760675059
Ga       67.4188111325       12.8777319494        9.5816696134
 N       66.7800336871       11.9571394921       11.1761578813
 N       69.3725278343       12.8777171438        9.5817151118
Ga       64.8263285875       14.7189286881       12.7705920304
Ga       67.4188188689       15.6394799336       11.1761637808
 N       66.7800389573       14.7188886003       12.7706612490
 N       69.3725349716       15.6394559469       11.1762022630
Ga       64.8263371739       11.9571761586       14.3650618215
Ga       67.4188388411       12.8777172976       12.7706574994
 N       66.7800487430       11.9571290616       14.3651471487
 N       69.3725538875       12.8777200342       12.7707171349
Ga       64.8263289094       14.7189397102       15.9595860066
Ga       67.4188349036       15.6394714593       14.3651619593
 N       66.7800446996       14.7188846297       15.9596512856
 N       69.3725467510       15.6394495826       14.3652162153
Ga       64.8263275050       11.9571731129       17.5540479184
Ga       67.4188427931       12.8777115957       15.9596478686
 N       66.7800385005       11.9571279815       17.5541380385
 N       69.3725551859       12.8776965990       15.9597166916
Ga       64.8262928436       14.7189590953       19.1485706038
Ga       67.4188266162       15.6394689159       17.5541605118
 N       66.7800024002       14.7189037807       19.1486514498
 N       69.3725353850       15.6394379518       17.5542284041
Ga       70.0113145984        0.9100757336        1.6092134804
Ga       70.0112933422        3.6718284412        3.2037077932
Ga       70.0113010402        0.9100694283        4.7982032548
Ga       70.0112986846        3.6718438005        6.3926869272
Ga       70.0112976668        0.9100857392        7.9871843770
Ga       70.0113151417        3.6718336967        9.5816929117
Ga       70.0113478255        0.9100911297       11.1761858118
Ga       70.0113500404        3.6718324373       12.7706939212
Ga       70.0113543317        0.9100906319       14.3651884514
Ga       70.0113467993        3.6718387461       15.9597036156
Ga       70.0113338898        0.9100752541       17.5542107855
Ga       70.0113246860        3.6718274270       19.1487219248
Ga       70.0113231929        6.4335809687        1.6092145477
Ga       70.0112943264        9.1953272921        3.2037120885
Ga       70.0113050095        6.4335835886        4.7981978480
Ga       70.0112889477        9.1953316275        6.3927047365
Ga       70.0112999896        6.4335972495        7.9872171262
Ga       70.0113273581        9.1953577458        9.5817038895
Ga       70.0113382943        6.4335909123       11.1762111367
Ga       70.0113675234        9.1953601275       12.7706959036
Ga       70.0113815178        6.4335870537       14.3652097029
Ga       70.0113671796        9.1953455008       15.9597048034
Ga       70.0113603177        6.4335820675       17.5542112014
Ga       70.0113186908        9.1953276011       19.1487019883
Ga       70.0113251350       11.9570895701        1.6092208532
Ga       70.0113212915       14.7188428490        3.2037229284
Ga       70.0113056833       11.9571077926        4.7982230741
Ga       70.0113071460       14.7188554869        6.3927016803
Ga       70.0113163258       11.9571134549        7.9872123042
Ga       70.0113250048       14.7188780990        9.5817017449
Ga       70.0113470945       11.9571380951       11.1762146771
Ga       70.0113466185       14.7188886489       12.7707161344
Ga       70.0113445975       11.9571211564       14.3652174935
Ga       70.0113318792       14.7188684104       15.9597308809
Ga       70.0113348368       11.9571071572       17.5542222127
Ga       70.0113335144       14.7188510980       19.1487230301
 H      -40.3923358885        1.4874382040        0.6126837327
 H      -40.3923353619       -0.2131183398        1.5945013873
 H      -40.3923353619        1.4874374451        2.5763177275
 H      -40.3923358885        4.2491932167        2.2071837327
 H      -40.3923353619        2.5486366729        3.1890013873
 H      -40.3923353619        4.2491924577        4.1708177275
 H      -40.3923358885        1.4874382040        3.8016837327
 H      -40.3923353619       -0.2131183398        4.7835013873
 H      -40.3923353619        1.4874374451        5.7653177275
 H      -40.3923358885        4.2491932167        5.3961837327
 H      -40.3923353619        2.5486366729        6.3780013873
 H      -40.3923353619        4.2491924577        7.3598177275
 H      -40.3923358885        1.4874382040        6.9906837327
 H      -40.3923353619       -0.2131183398        7.9725013873
 H      -40.3923353619        1.4874374451        8.9543177275
 H      -40.3923358885        4.2491932167        8.5851837327
 H      -40.3923353619        2.5486366729        9.5670013873
 H      -40.3923353619        4.2491924577       10.5488177275
 H      -40.3923358885        1.4874382040       10.1796837327
 H      -40.3923353619       -0.2131183398       11.1615013873
 H      -40.3923353619        1.4874374451       12.1433177275
 H      -40.3923358885        4.2491932167       11.7741837327
 H      -40.3923353619        2.5486366729       12.7560013873
 H      -40.3923353619        4.2491924577       13.7378177275
 H      -40.3923358885        1.4874382040       13.3686837327
 H      -40.3923353619       -0.2131183398       14.3505013873
 H      -40.3923353619        1.4874374451       15.3323177275
 H      -40.3923358885        4.2491932167       14.9631837327
 H      -40.3923353619        4.2491924577       16.9268177275
 H      -40.3923353619        2.5486366729       15.9450013873
 H      -40.3923358885        1.4874382040       16.5576837327
 H      -40.3923353619       -0.2131183398       17.5395013873
 H      -40.3923353619        1.4874374451       18.5213177275
 H      -40.3923358885        4.2491932167       18.1521837327
 H      -40.3923353619        2.5486366729       19.1340013873
 H      -40.3923353619        4.2491924577       20.1158177275
 H      -40.3923358885        7.0109482293        0.6126837327
 H      -40.3923353619        5.3103916855        1.5945013873
 H      -40.3923353619        7.0109474704        2.5763177275
 H      -40.3923358885        9.7727032420        2.2071837327
 H      -40.3923353619        8.0721466982        3.1890013873
 H      -40.3923353619        9.7727024831        4.1708177275
 H      -40.3923358885        7.0109482293        3.8016837327
 H      -40.3923353619        5.3103916855        4.7835013873
 H      -40.3923353619        7.0109474704        5.7653177275
 H      -40.3923358885        9.7727032420        5.3961837327
 H      -40.3923353619        8.0721466982        6.3780013873
 H      -40.3923353619        9.7727024831        7.3598177275
 H      -40.3923358885        7.0109482293        6.9906837327
 H      -40.3923353619        7.0109474704        8.9543177275
 H      -40.3923353619        5.3103916855        7.9725013873
 H      -40.3923358885        9.7727032420        8.5851837327
 H      -40.3923353619        9.7727024831       10.5488177275
 H      -40.3923353619        8.0721466982        9.5670013873
 H      -40.3923358885        7.0109482293       10.1796837327
 H      -40.3923353619        5.3103916855       11.1615013873
 H      -40.3923353619        7.0109474704       12.1433177275
 H      -40.3923358885        9.7727032420       11.7741837327
 H      -40.3923353619        8.0721466982       12.7560013873
 H      -40.3923353619        9.7727024831       13.7378177275
 H      -40.3923358885        7.0109482293       13.3686837327
 H      -40.3923353619        5.3103916855       14.3505013873
 H      -40.3923353619        7.0109474704       15.3323177275
 H      -40.3923358885        9.7727032420       14.9631837327
 H      -40.3923353619        8.0721466982       15.9450013873
 H      -40.3923353619        9.7727024831       16.9268177275
 H      -40.3923358885        7.0109482293       16.5576837327
 H      -40.3923353619        5.3103916855       17.5395013873
 H      -40.3923353619        7.0109474704       18.5213177275
 H      -40.3923358885        9.7727032420       18.1521837327
 H      -40.3923353619        9.7727024831       20.1158177275
 H      -40.3923353619        8.0721466982       19.1340013873
 H      -40.3923358885       12.5344582547        0.6126837327
 H      -40.3923353619       10.8339017109        1.5945013873
 H      -40.3923353619       12.5344574958        2.5763177275
 H      -40.3923358885       15.2962132673        2.2071837327
 H      -40.3923353619       13.5956567235        3.1890013873
 H      -40.3923353619       15.2962125084        4.1708177275
 H      -40.3923358885       12.5344582547        3.8016837327
 H      -40.3923353619       10.8339017109        4.7835013873
 H      -40.3923353619       12.5344574958        5.7653177275
 H      -40.3923358885       15.2962132673        5.3961837327
 H      -40.3923353619       13.5956567235        6.3780013873
 H      -40.3923353619       15.2962125084        7.3598177275
 H      -40.3923358885       12.5344582547        6.9906837327
 H      -40.3923353619       10.8339017109        7.9725013873
 H      -40.3923353619       12.5344574958        8.9543177275
 H      -40.3923358885       15.2962132673        8.5851837327
 H      -40.3923353619       13.5956567235        9.5670013873
 H      -40.3923353619       15.2962125084       10.5488177275
 H      -40.3923358885       12.5344582547       10.1796837327
 H      -40.3923353619       10.8339017109       11.1615013873
 H      -40.3923353619       12.5344574958       12.1433177275
 H      -40.3923358885       15.2962132673       11.7741837327
 H      -40.3923353619       13.5956567235       12.7560013873
 H      -40.3923353619       15.2962125084       13.7378177275
 H      -40.3923358885       12.5344582547       13.3686837327
 H      -40.3923353619       10.8339017109       14.3505013873
 H      -40.3923353619       12.5344574958       15.3323177275
 H      -40.3923358885       15.2962132673       14.9631837327
 H      -40.3923353619       13.5956567235       15.9450013873
 H      -40.3923353619       15.2962125084       16.9268177275
 H      -40.3923358885       12.5344582547       16.5576837327
 H      -40.3923353619       10.8339017109       17.5395013873
 H      -40.3923353619       12.5344574958       18.5213177275
 H      -40.3923358885       15.2962132673       18.1521837327
 H      -40.3923353619       15.2962125084       20.1158177275
 H      -40.3923353619       13.5956567235       19.1340013873
 H       71.3694386327        0.9310964337        1.5797873306
 H       71.3694598890        3.6928537515        3.1742930178
 H       71.3694521910        0.9311027390        4.7687975562
 H       71.3694545466        3.6928383921        6.3633138838
 H       71.3694555644        0.9310864281        7.9578164340
 H       71.3694380895        3.6928484959        9.5523078993
 H       71.3694054057        0.9310810376       11.1468149992
 H       71.3694031908        3.6928497553       12.7413068898
 H       71.3693988995        0.9310815354       14.3358123596
 H       71.3694064318        3.6928434465       15.9302971954
 H       71.3694193414        0.9310969132       17.5247900255
 H       71.3694285452        3.6928547656       19.1192788862
 H       71.3694300382        6.4546112493        1.5797862633
 H       71.3694589048        9.2163749512        3.1742887225
 H       71.3694482217        6.4546086294        4.7688029630
 H       71.3694642835        9.2163706158        6.3632960745
 H       71.3694532415        6.4545949684        7.9577836848
 H       71.3694258731        9.2163444975        9.5522969215
 H       71.3694149369        6.4546013056       11.1467896743
 H       71.3693857078        9.2163421158       12.7413049074
 H       71.3693717134        6.4546051643       14.3357911081
 H       71.3693860516        9.2163567425       15.9302960076
 H       71.3693929134        6.4546101505       17.5247896096
 H       71.3694345404        9.2163746422       19.1192988227
 H       71.3694280962       11.9781226985        1.5797799578
 H       71.3694319397       14.7398794449        3.1742778826
 H       71.3694475479       11.9781044761        4.7687777369
 H       71.3694460851       14.7398668070        6.3632991307
 H       71.3694369053       11.9780988137        7.9577885068
 H       71.3694282263       14.7398441950        9.5522990661
 H       71.3694061367       11.9780741735       11.1467861339
 H       71.3694066126       14.7398336450       12.7412846766
 H       71.3694086337       11.9780911122       14.3357833175
 H       71.3694213520       14.7398538835       15.9302699301
 H       71.3694183943       11.9781051114       17.5247785983
 H       71.3694197168       14.7398711959       19.1192777809
