3204

Ga      -39.9989980000        0.9205860836        1.5945004055
Ga      -37.4064980000        1.8411701673        0.0000020000
 N      -38.0452900000        0.9205860836        1.5945004055
 N      -35.4527900000        1.8411701673        0.0000020000
Ga      -39.9989980000        3.6823410963        3.1890004055
Ga      -37.4064980000        4.6029251799        1.5945020000
 N      -38.0452900000        3.6823410963        3.1890004055
 N      -35.4527900000        4.6029251799        1.5945020000
Ga      -39.9989980000        0.9205860836        4.7835004055
Ga      -37.4064980000        1.8411701673        3.1890020000
 N      -38.0452900000        0.9205860836        4.7835004055
 N      -35.4527900000        1.8411701673        3.1890020000
Ga      -39.9989980000        3.6823410963        6.3780004055
Ga      -37.4064980000        4.6029251799        4.7835020000
 N      -38.0452900000        3.6823410963        6.3780004055
 N      -35.4527900000        4.6029251799        4.7835020000
Ga      -39.9989980000        0.9205860836        7.9725004055
Ga      -37.4064980000        1.8411701673        6.3780020000
 N      -38.0452900000        0.9205860836        7.9725004055
 N      -35.4527900000        1.8411701673        6.3780020000
Ga      -39.9989980000        3.6823410963        9.5670004055
Ga      -37.4064980000        4.6029251799        7.9725020000
 N      -38.0452900000        3.6823410963        9.5670004055
 N      -35.4527900000        4.6029251799        7.9725020000
Ga      -39.9989980000        0.9205860836       11.1615004055
Ga      -37.4064980000        1.8411701673        9.5670020000
 N      -38.0452900000        0.9205860836       11.1615004055
 N      -35.4527900000        1.8411701673        9.5670020000
Ga      -39.9989980000        3.6823410963       12.7560004055
Ga      -37.4064980000        4.6029251799       11.1615020000
 N      -38.0452900000        3.6823410963       12.7560004055
 N      -35.4527900000        4.6029251799       11.1615020000
Ga      -39.9989980000        0.9205860836       14.3505004055
Ga      -37.4064980000        1.8411701673       12.7560020000
 N      -38.0452900000        0.9205860836       14.3505004055
 N      -35.4527900000        1.8411701673       12.7560020000
Ga      -39.9989980000        3.6823410963       15.9450004055
Ga      -37.4064980000        4.6029251799       14.3505020000
 N      -38.0452900000        3.6823410963       15.9450004055
 N      -35.4527900000        4.6029251799       14.3505020000
Ga      -39.9989980000        0.9205860836       17.5395004055
Ga      -37.4064980000        1.8411701673       15.9450020000
 N      -38.0452900000        0.9205860836       17.5395004055
 N      -35.4527900000        1.8411701673       15.9450020000
Ga      -39.9989980000        3.6823410963       19.1340004055
Ga      -37.4064980000        4.6029251799       17.5395020000
 N      -38.0452900000        3.6823410963       19.1340004055
 N      -35.4527900000        4.6029251799       17.5395020000
Ga      -39.9989980000        6.4440961090        1.5945004055
Ga      -37.4064980000        7.3646801926        0.0000020000
 N      -38.0452900000        6.4440961090        1.5945004055
 N      -35.4527900000        7.3646801926        0.0000020000
Ga      -39.9989980000        9.2058511216        3.1890004055
Ga      -37.4064980000       10.1264352053        1.5945020000
 N      -38.0452900000        9.2058511216        3.1890004055
 N      -35.4527900000       10.1264352053        1.5945020000
Ga      -39.9989980000        6.4440961090        4.7835004055
Ga      -37.4064980000        7.3646801926        3.1890020000
 N      -38.0452900000        6.4440961090        4.7835004055
 N      -35.4527900000        7.3646801926        3.1890020000
Ga      -39.9989980000        9.2058511216        6.3780004055
Ga      -37.4064980000       10.1264352053        4.7835020000
 N      -38.0452900000        9.2058511216        6.3780004055
 N      -35.4527900000       10.1264352053        4.7835020000
Ga      -39.9989980000        6.4440961090        7.9725004055
Ga      -37.4064980000        7.3646801926        6.3780020000
 N      -38.0452900000        6.4440961090        7.9725004055
 N      -35.4527900000        7.3646801926        6.3780020000
Ga      -39.9989980000        9.2058511216        9.5670004055
Ga      -37.4064980000       10.1264352053        7.9725020000
 N      -38.0452900000        9.2058511216        9.5670004055
 N      -35.4527900000       10.1264352053        7.9725020000
Ga      -39.9989980000        6.4440961090       11.1615004055
Ga      -37.4064980000        7.3646801926        9.5670020000
 N      -38.0452900000        6.4440961090       11.1615004055
 N      -35.4527900000        7.3646801926        9.5670020000
Ga      -39.9989980000        9.2058511216       12.7560004055
Ga      -37.4064980000       10.1264352053       11.1615020000
 N      -38.0452900000        9.2058511216       12.7560004055
 N      -35.4527900000       10.1264352053       11.1615020000
Ga      -39.9989980000        6.4440961090       14.3505004055
Ga      -37.4064980000        7.3646801926       12.7560020000
 N      -38.0452900000        6.4440961090       14.3505004055
 N      -35.4527900000        7.3646801926       12.7560020000
Ga      -39.9989980000        9.2058511216       15.9450004055
Ga      -37.4064980000       10.1264352053       14.3505020000
 N      -38.0452900000        9.2058511216       15.9450004055
 N      -35.4527900000       10.1264352053       14.3505020000
Ga      -39.9989980000        6.4440961090       17.5395004055
Ga      -37.4064980000        7.3646801926       15.9450020000
 N      -38.0452900000        6.4440961090       17.5395004055
 N      -35.4527900000        7.3646801926       15.9450020000
Ga      -39.9989980000        9.2058511216       19.1340004055
Ga      -37.4064980000       10.1264352053       17.5395020000
 N      -38.0452900000        9.2058511216       19.1340004055
 N      -35.4527900000       10.1264352053       17.5395020000
Ga      -39.9989980000       11.9676061343        1.5945004055
Ga      -37.4064980000       12.8881902180        0.0000020000
 N      -38.0452900000       11.9676061343        1.5945004055
 N      -35.4527900000       12.8881902180        0.0000020000
Ga      -39.9989980000       14.7293611470        3.1890004055
Ga      -37.4064980000       15.6499452306        1.5945020000
 N      -38.0452900000       14.7293611470        3.1890004055
 N      -35.4527900000       15.6499452306        1.5945020000
Ga      -39.9989980000       11.9676061343        4.7835004055
Ga      -37.4064980000       12.8881902180        3.1890020000
 N      -38.0452900000       11.9676061343        4.7835004055
 N      -35.4527900000       12.8881902180        3.1890020000
Ga      -39.9989980000       14.7293611470        6.3780004055
Ga      -37.4064980000       15.6499452306        4.7835020000
 N      -38.0452900000       14.7293611470        6.3780004055
 N      -35.4527900000       15.6499452306        4.7835020000
Ga      -39.9989980000       11.9676061343        7.9725004055
Ga      -37.4064980000       12.8881902180        6.3780020000
 N      -38.0452900000       11.9676061343        7.9725004055
 N      -35.4527900000       12.8881902180        6.3780020000
Ga      -39.9989980000       14.7293611470        9.5670004055
Ga      -37.4064980000       15.6499452306        7.9725020000
 N      -38.0452900000       14.7293611470        9.5670004055
 N      -35.4527900000       15.6499452306        7.9725020000
Ga      -39.9989980000       11.9676061343       11.1615004055
Ga      -37.4064980000       12.8881902180        9.5670020000
 N      -38.0452900000       11.9676061343       11.1615004055
 N      -35.4527900000       12.8881902180        9.5670020000
Ga      -39.9989980000       14.7293611470       12.7560004055
Ga      -37.4064980000       15.6499452306       11.1615020000
 N      -38.0452900000       14.7293611470       12.7560004055
 N      -35.4527900000       15.6499452306       11.1615020000
Ga      -39.9989980000       11.9676061343       14.3505004055
Ga      -37.4064980000       12.8881902180       12.7560020000
 N      -38.0452900000       11.9676061343       14.3505004055
 N      -35.4527900000       12.8881902180       12.7560020000
Ga      -39.9989980000       14.7293611470       15.9450004055
Ga      -37.4064980000       15.6499452306       14.3505020000
 N      -38.0452900000       14.7293611470       15.9450004055
 N      -35.4527900000       15.6499452306       14.3505020000
Ga      -39.9989980000       11.9676061343       17.5395004055
Ga      -37.4064980000       12.8881902180       15.9450020000
 N      -38.0452900000       11.9676061343       17.5395004055
 N      -35.4527900000       12.8881902180       15.9450020000
Ga      -39.9989980000       14.7293611470       19.1340004055
Ga      -37.4064980000       15.6499452306       17.5395020000
 N      -38.0452900000       14.7293611470       19.1340004055
 N      -35.4527900000       15.6499452306       17.5395020000
Ga      -34.8139980000        0.9205860836        1.5945004055
Ga      -32.2214980000        1.8411701673        0.0000020000
 N      -32.8602900000        0.9205860836        1.5945004055
 N      -30.2677900000        1.8411701673        0.0000020000
Ga      -34.8139980000        3.6823410963        3.1890004055
Ga      -32.2214980000        4.6029251799        1.5945020000
 N      -32.8602900000        3.6823410963        3.1890004055
 N      -30.2677900000        4.6029251799        1.5945020000
Ga      -34.8139980000        0.9205860836        4.7835004055
Ga      -32.2214980000        1.8411701673        3.1890020000
 N      -32.8602900000        0.9205860836        4.7835004055
 N      -30.2677900000        1.8411701673        3.1890020000
Ga      -34.8139980000        3.6823410963        6.3780004055
Ga      -32.2214980000        4.6029251799        4.7835020000
 N      -32.8602900000        3.6823410963        6.3780004055
 N      -30.2677900000        4.6029251799        4.7835020000
Ga      -34.8139980000        0.9205860836        7.9725004055
Ga      -32.2214980000        1.8411701673        6.3780020000
 N      -32.8602900000        0.9205860836        7.9725004055
 N      -30.2677900000        1.8411701673        6.3780020000
Ga      -34.8139980000        3.6823410963        9.5670004055
Ga      -32.2214980000        4.6029251799        7.9725020000
 N      -32.8602900000        3.6823410963        9.5670004055
 N      -30.2677900000        4.6029251799        7.9725020000
Ga      -34.8139980000        0.9205860836       11.1615004055
Ga      -32.2214980000        1.8411701673        9.5670020000
 N      -32.8602900000        0.9205860836       11.1615004055
 N      -30.2677900000        1.8411701673        9.5670020000
Ga      -34.8139980000        3.6823410963       12.7560004055
Ga      -32.2214980000        4.6029251799       11.1615020000
 N      -32.8602900000        3.6823410963       12.7560004055
 N      -30.2677900000        4.6029251799       11.1615020000
Ga      -34.8139980000        0.9205860836       14.3505004055
Ga      -32.2214980000        1.8411701673       12.7560020000
 N      -32.8602900000        0.9205860836       14.3505004055
 N      -30.2677900000        1.8411701673       12.7560020000
Ga      -34.8139980000        3.6823410963       15.9450004055
Ga      -32.2214980000        4.6029251799       14.3505020000
 N      -32.8602900000        3.6823410963       15.9450004055
 N      -30.2677900000        4.6029251799       14.3505020000
Ga      -34.8139980000        0.9205860836       17.5395004055
Ga      -32.2214980000        1.8411701673       15.9450020000
 N      -32.8602900000        0.9205860836       17.5395004055
 N      -30.2677900000        1.8411701673       15.9450020000
Ga      -34.8139980000        3.6823410963       19.1340004055
Ga      -32.2214980000        4.6029251799       17.5395020000
 N      -32.8602900000        3.6823410963       19.1340004055
 N      -30.2677900000        4.6029251799       17.5395020000
Ga      -34.8139980000        6.4440961090        1.5945004055
Ga      -32.2214980000        7.3646801926        0.0000020000
 N      -32.8602900000        6.4440961090        1.5945004055
 N      -30.2677900000        7.3646801926        0.0000020000
Ga      -34.8139980000        9.2058511216        3.1890004055
Ga      -32.2214980000       10.1264352053        1.5945020000
 N      -32.8602900000        9.2058511216        3.1890004055
 N      -30.2677900000       10.1264352053        1.5945020000
Ga      -34.8139980000        6.4440961090        4.7835004055
Ga      -32.2214980000        7.3646801926        3.1890020000
 N      -32.8602900000        6.4440961090        4.7835004055
 N      -30.2677900000        7.3646801926        3.1890020000
Ga      -34.8139980000        9.2058511216        6.3780004055
Ga      -32.2214980000       10.1264352053        4.7835020000
 N      -32.8602900000        9.2058511216        6.3780004055
 N      -30.2677900000       10.1264352053        4.7835020000
Ga      -34.8139980000        6.4440961090        7.9725004055
Ga      -32.2214980000        7.3646801926        6.3780020000
 N      -32.8602900000        6.4440961090        7.9725004055
 N      -30.2677900000        7.3646801926        6.3780020000
Ga      -34.8139980000        9.2058511216        9.5670004055
Ga      -32.2214980000       10.1264352053        7.9725020000
 N      -32.8602900000        9.2058511216        9.5670004055
 N      -30.2677900000       10.1264352053        7.9725020000
Ga      -34.8139980000        6.4440961090       11.1615004055
Ga      -32.2214980000        7.3646801926        9.5670020000
 N      -32.8602900000        6.4440961090       11.1615004055
 N      -30.2677900000        7.3646801926        9.5670020000
Ga      -34.8139980000        9.2058511216       12.7560004055
Ga      -32.2214980000       10.1264352053       11.1615020000
 N      -32.8602900000        9.2058511216       12.7560004055
 N      -30.2677900000       10.1264352053       11.1615020000
Ga      -34.8139980000        6.4440961090       14.3505004055
Ga      -32.2214980000        7.3646801926       12.7560020000
 N      -32.8602900000        6.4440961090       14.3505004055
 N      -30.2677900000        7.3646801926       12.7560020000
Ga      -34.8139980000        9.2058511216       15.9450004055
Ga      -32.2214980000       10.1264352053       14.3505020000
 N      -32.8602900000        9.2058511216       15.9450004055
 N      -30.2677900000       10.1264352053       14.3505020000
Ga      -34.8139980000        6.4440961090       17.5395004055
Ga      -32.2214980000        7.3646801926       15.9450020000
 N      -32.8602900000        6.4440961090       17.5395004055
 N      -30.2677900000        7.3646801926       15.9450020000
Ga      -34.8139980000        9.2058511216       19.1340004055
Ga      -32.2214980000       10.1264352053       17.5395020000
 N      -32.8602900000        9.2058511216       19.1340004055
 N      -30.2677900000       10.1264352053       17.5395020000
Ga      -34.8139980000       11.9676061343        1.5945004055
Ga      -32.2214980000       12.8881902180        0.0000020000
 N      -32.8602900000       11.9676061343        1.5945004055
 N      -30.2677900000       12.8881902180        0.0000020000
Ga      -34.8139980000       14.7293611470        3.1890004055
Ga      -32.2214980000       15.6499452306        1.5945020000
 N      -32.8602900000       14.7293611470        3.1890004055
 N      -30.2677900000       15.6499452306        1.5945020000
Ga      -34.8139980000       11.9676061343        4.7835004055
Ga      -32.2214980000       12.8881902180        3.1890020000
 N      -32.8602900000       11.9676061343        4.7835004055
 N      -30.2677900000       12.8881902180        3.1890020000
Ga      -34.8139980000       14.7293611470        6.3780004055
Ga      -32.2214980000       15.6499452306        4.7835020000
 N      -32.8602900000       14.7293611470        6.3780004055
 N      -30.2677900000       15.6499452306        4.7835020000
Ga      -34.8139980000       11.9676061343        7.9725004055
Ga      -32.2214980000       12.8881902180        6.3780020000
 N      -32.8602900000       11.9676061343        7.9725004055
 N      -30.2677900000       12.8881902180        6.3780020000
Ga      -34.8139980000       14.7293611470        9.5670004055
Ga      -32.2214980000       15.6499452306        7.9725020000
 N      -32.8602900000       14.7293611470        9.5670004055
 N      -30.2677900000       15.6499452306        7.9725020000
Ga      -34.8139980000       11.9676061343       11.1615004055
Ga      -32.2214980000       12.8881902180        9.5670020000
 N      -32.8602900000       11.9676061343       11.1615004055
 N      -30.2677900000       12.8881902180        9.5670020000
Ga      -34.8139980000       14.7293611470       12.7560004055
Ga      -32.2214980000       15.6499452306       11.1615020000
 N      -32.8602900000       14.7293611470       12.7560004055
 N      -30.2677900000       15.6499452306       11.1615020000
Ga      -34.8139980000       11.9676061343       14.3505004055
Ga      -32.2214980000       12.8881902180       12.7560020000
 N      -32.8602900000       11.9676061343       14.3505004055
 N      -30.2677900000       12.8881902180       12.7560020000
Ga      -34.8139980000       14.7293611470       15.9450004055
Ga      -32.2214980000       15.6499452306       14.3505020000
 N      -32.8602900000       14.7293611470       15.9450004055
 N      -30.2677900000       15.6499452306       14.3505020000
Ga      -34.8139980000       11.9676061343       17.5395004055
Ga      -32.2214980000       12.8881902180       15.9450020000
 N      -32.8602900000       11.9676061343       17.5395004055
 N      -30.2677900000       12.8881902180       15.9450020000
Ga      -34.8139980000       14.7293611470       19.1340004055
Ga      -32.2214980000       15.6499452306       17.5395020000
 N      -32.8602900000       14.7293611470       19.1340004055
 N      -30.2677900000       15.6499452306       17.5395020000
Ga      -29.6289980000        0.9205860836        1.5945004055
Ga      -27.0364980000        1.8411701673        0.0000020000
 N      -27.6752900000        0.9205860836        1.5945004055
 N      -25.0827900000        1.8411701673        0.0000020000
Ga      -29.6289980000        3.6823410963        3.1890004055
Ga      -27.0364980000        4.6029251799        1.5945020000
 N      -27.6752900000        3.6823410963        3.1890004055
 N      -25.0827900000        4.6029251799        1.5945020000
Ga      -29.6289980000        0.9205860836        4.7835004055
Ga      -27.0364980000        1.8411701673        3.1890020000
 N      -27.6752900000        0.9205860836        4.7835004055
 N      -25.0827900000        1.8411701673        3.1890020000
Ga      -29.6289980000        3.6823410963        6.3780004055
Ga      -27.0364980000        4.6029251799        4.7835020000
 N      -27.6752900000        3.6823410963        6.3780004055
 N      -25.0827900000        4.6029251799        4.7835020000
Ga      -29.6289980000        0.9205860836        7.9725004055
Ga      -27.0364980000        1.8411701673        6.3780020000
 N      -27.6752900000        0.9205860836        7.9725004055
 N      -25.0827900000        1.8411701673        6.3780020000
Ga      -29.6289980000        3.6823410963        9.5670004055
Ga      -27.0364980000        4.6029251799        7.9725020000
 N      -27.6752900000        3.6823410963        9.5670004055
 N      -25.0827900000        4.6029251799        7.9725020000
Ga      -29.6289980000        0.9205860836       11.1615004055
Ga      -27.0364980000        1.8411701673        9.5670020000
 N      -27.6752900000        0.9205860836       11.1615004055
 N      -25.0827900000        1.8411701673        9.5670020000
Ga      -29.6289980000        3.6823410963       12.7560004055
Ga      -27.0364980000        4.6029251799       11.1615020000
 N      -27.6752900000        3.6823410963       12.7560004055
 N      -25.0827900000        4.6029251799       11.1615020000
Ga      -29.6289980000        0.9205860836       14.3505004055
Ga      -27.0364980000        1.8411701673       12.7560020000
 N      -27.6752900000        0.9205860836       14.3505004055
 N      -25.0827900000        1.8411701673       12.7560020000
Ga      -29.6289980000        3.6823410963       15.9450004055
Ga      -27.0364980000        4.6029251799       14.3505020000
 N      -27.6752900000        3.6823410963       15.9450004055
 N      -25.0827900000        4.6029251799       14.3505020000
Ga      -29.6289980000        0.9205860836       17.5395004055
Ga      -27.0364980000        1.8411701673       15.9450020000
 N      -27.6752900000        0.9205860836       17.5395004055
 N      -25.0827900000        1.8411701673       15.9450020000
Ga      -29.6289980000        3.6823410963       19.1340004055
Ga      -27.0364980000        4.6029251799       17.5395020000
 N      -27.6752900000        3.6823410963       19.1340004055
 N      -25.0827900000        4.6029251799       17.5395020000
Ga      -29.6289980000        6.4440961090        1.5945004055
Ga      -27.0364980000        7.3646801926        0.0000020000
 N      -27.6752900000        6.4440961090        1.5945004055
 N      -25.0827900000        7.3646801926        0.0000020000
Ga      -29.6289980000        9.2058511216        3.1890004055
Ga      -27.0364980000       10.1264352053        1.5945020000
 N      -27.6752900000        9.2058511216        3.1890004055
 N      -25.0827900000       10.1264352053        1.5945020000
Ga      -29.6289980000        6.4440961090        4.7835004055
Ga      -27.0364980000        7.3646801926        3.1890020000
 N      -27.6752900000        6.4440961090        4.7835004055
 N      -25.0827900000        7.3646801926        3.1890020000
Ga      -29.6289980000        9.2058511216        6.3780004055
Ga      -27.0364980000       10.1264352053        4.7835020000
 N      -27.6752900000        9.2058511216        6.3780004055
 N      -25.0827900000       10.1264352053        4.7835020000
Ga      -29.6289980000        6.4440961090        7.9725004055
Ga      -27.0364980000        7.3646801926        6.3780020000
 N      -27.6752900000        6.4440961090        7.9725004055
 N      -25.0827900000        7.3646801926        6.3780020000
Ga      -29.6289980000        9.2058511216        9.5670004055
Ga      -27.0364980000       10.1264352053        7.9725020000
 N      -27.6752900000        9.2058511216        9.5670004055
 N      -25.0827900000       10.1264352053        7.9725020000
Ga      -29.6289980000        6.4440961090       11.1615004055
Ga      -27.0364980000        7.3646801926        9.5670020000
 N      -27.6752900000        6.4440961090       11.1615004055
 N      -25.0827900000        7.3646801926        9.5670020000
Ga      -29.6289980000        9.2058511216       12.7560004055
Ga      -27.0364980000       10.1264352053       11.1615020000
 N      -27.6752900000        9.2058511216       12.7560004055
 N      -25.0827900000       10.1264352053       11.1615020000
Ga      -29.6289980000        6.4440961090       14.3505004055
Ga      -27.0364980000        7.3646801926       12.7560020000
 N      -27.6752900000        6.4440961090       14.3505004055
 N      -25.0827900000        7.3646801926       12.7560020000
Ga      -29.6289980000        9.2058511216       15.9450004055
Ga      -27.0364980000       10.1264352053       14.3505020000
 N      -27.6752900000        9.2058511216       15.9450004055
 N      -25.0827900000       10.1264352053       14.3505020000
Ga      -29.6289980000        6.4440961090       17.5395004055
Ga      -27.0364980000        7.3646801926       15.9450020000
 N      -27.6752900000        6.4440961090       17.5395004055
 N      -25.0827900000        7.3646801926       15.9450020000
Ga      -29.6289980000        9.2058511216       19.1340004055
Ga      -27.0364980000       10.1264352053       17.5395020000
 N      -27.6752900000        9.2058511216       19.1340004055
 N      -25.0827900000       10.1264352053       17.5395020000
Ga      -29.6289980000       11.9676061343        1.5945004055
Ga      -27.0364980000       12.8881902180        0.0000020000
 N      -27.6752900000       11.9676061343        1.5945004055
 N      -25.0827900000       12.8881902180        0.0000020000
Ga      -29.6289980000       14.7293611470        3.1890004055
Ga      -27.0364980000       15.6499452306        1.5945020000
 N      -27.6752900000       14.7293611470        3.1890004055
 N      -25.0827900000       15.6499452306        1.5945020000
Ga      -29.6289980000       11.9676061343        4.7835004055
Ga      -27.0364980000       12.8881902180        3.1890020000
 N      -27.6752900000       11.9676061343        4.7835004055
 N      -25.0827900000       12.8881902180        3.1890020000
Ga      -29.6289980000       14.7293611470        6.3780004055
Ga      -27.0364980000       15.6499452306        4.7835020000
 N      -27.6752900000       14.7293611470        6.3780004055
 N      -25.0827900000       15.6499452306        4.7835020000
Ga      -29.6289980000       11.9676061343        7.9725004055
Ga      -27.0364980000       12.8881902180        6.3780020000
 N      -27.6752900000       11.9676061343        7.9725004055
 N      -25.0827900000       12.8881902180        6.3780020000
Ga      -29.6289980000       14.7293611470        9.5670004055
Ga      -27.0364980000       15.6499452306        7.9725020000
 N      -27.6752900000       14.7293611470        9.5670004055
 N      -25.0827900000       15.6499452306        7.9725020000
Ga      -29.6289980000       11.9676061343       11.1615004055
Ga      -27.0364980000       12.8881902180        9.5670020000
 N      -27.6752900000       11.9676061343       11.1615004055
 N      -25.0827900000       12.8881902180        9.5670020000
Ga      -29.6289980000       14.7293611470       12.7560004055
Ga      -27.0364980000       15.6499452306       11.1615020000
 N      -27.6752900000       14.7293611470       12.7560004055
 N      -25.0827900000       15.6499452306       11.1615020000
Ga      -29.6289980000       11.9676061343       14.3505004055
Ga      -27.0364980000       12.8881902180       12.7560020000
 N      -27.6752900000       11.9676061343       14.3505004055
 N      -25.0827900000       12.8881902180       12.7560020000
Ga      -29.6289980000       14.7293611470       15.9450004055
Ga      -27.0364980000       15.6499452306       14.3505020000
 N      -27.6752900000       14.7293611470       15.9450004055
 N      -25.0827900000       15.6499452306       14.3505020000
Ga      -29.6289980000       11.9676061343       17.5395004055
Ga      -27.0364980000       12.8881902180       15.9450020000
 N      -27.6752900000       11.9676061343       17.5395004055
 N      -25.0827900000       12.8881902180       15.9450020000
Ga      -29.6289980000       14.7293611470       19.1340004055
Ga      -27.0364980000       15.6499452306       17.5395020000
 N      -27.6752900000       14.7293611470       19.1340004055
 N      -25.0827900000       15.6499452306       17.5395020000
Ga      -24.4439980000        0.9205860836        1.5945004055
Ga      -21.8514980000        1.8411701673        0.0000020000
 N      -22.4902900000        0.9205860836        1.5945004055
 N      -19.8977900000        1.8411701673        0.0000020000
Ga      -24.4439980000        3.6823410963        3.1890004055
Ga      -21.8514980000        4.6029251799        1.5945020000
 N      -22.4902900000        3.6823410963        3.1890004055
 N      -19.8977900000        4.6029251799        1.5945020000
Ga      -24.4439980000        0.9205860836        4.7835004055
Ga      -21.8514980000        1.8411701673        3.1890020000
 N      -22.4902900000        0.9205860836        4.7835004055
 N      -19.8977900000        1.8411701673        3.1890020000
Ga      -24.4439980000        3.6823410963        6.3780004055
Ga      -21.8514980000        4.6029251799        4.7835020000
 N      -22.4902900000        3.6823410963        6.3780004055
 N      -19.8977900000        4.6029251799        4.7835020000
Ga      -24.4439980000        0.9205860836        7.9725004055
Ga      -21.8514980000        1.8411701673        6.3780020000
 N      -22.4902900000        0.9205860836        7.9725004055
 N      -19.8977900000        1.8411701673        6.3780020000
Ga      -24.4439980000        3.6823410963        9.5670004055
Ga      -21.8514980000        4.6029251799        7.9725020000
 N      -22.4902900000        3.6823410963        9.5670004055
 N      -19.8977900000        4.6029251799        7.9725020000
Ga      -24.4439980000        0.9205860836       11.1615004055
Ga      -21.8514980000        1.8411701673        9.5670020000
 N      -22.4902900000        0.9205860836       11.1615004055
 N      -19.8977900000        1.8411701673        9.5670020000
Ga      -24.4439980000        3.6823410963       12.7560004055
Ga      -21.8514980000        4.6029251799       11.1615020000
 N      -22.4902900000        3.6823410963       12.7560004055
 N      -19.8977900000        4.6029251799       11.1615020000
Ga      -24.4439980000        0.9205860836       14.3505004055
Ga      -21.8514980000        1.8411701673       12.7560020000
 N      -22.4902900000        0.9205860836       14.3505004055
 N      -19.8977900000        1.8411701673       12.7560020000
Ga      -24.4439980000        3.6823410963       15.9450004055
Ga      -21.8514980000        4.6029251799       14.3505020000
 N      -22.4902900000        3.6823410963       15.9450004055
 N      -19.8977900000        4.6029251799       14.3505020000
Ga      -24.4439980000        0.9205860836       17.5395004055
Ga      -21.8514980000        1.8411701673       15.9450020000
 N      -22.4902900000        0.9205860836       17.5395004055
 N      -19.8977900000        1.8411701673       15.9450020000
Ga      -24.4439980000        3.6823410963       19.1340004055
Ga      -21.8514980000        4.6029251799       17.5395020000
 N      -22.4902900000        3.6823410963       19.1340004055
 N      -19.8977900000        4.6029251799       17.5395020000
Ga      -24.4439980000        6.4440961090        1.5945004055
Ga      -21.8514980000        7.3646801926        0.0000020000
 N      -22.4902900000        6.4440961090        1.5945004055
 N      -19.8977900000        7.3646801926        0.0000020000
Ga      -24.4439980000        9.2058511216        3.1890004055
Ga      -21.8514980000       10.1264352053        1.5945020000
 N      -22.4902900000        9.2058511216        3.1890004055
 N      -19.8977900000       10.1264352053        1.5945020000
Ga      -24.4439980000        6.4440961090        4.7835004055
Ga      -21.8514980000        7.3646801926        3.1890020000
 N      -22.4902900000        6.4440961090        4.7835004055
 N      -19.8977900000        7.3646801926        3.1890020000
Ga      -24.4439980000        9.2058511216        6.3780004055
Ga      -21.8514980000       10.1264352053        4.7835020000
 N      -22.4902900000        9.2058511216        6.3780004055
 N      -19.8977900000       10.1264352053        4.7835020000
Ga      -24.4439980000        6.4440961090        7.9725004055
Ga      -21.8514980000        7.3646801926        6.3780020000
 N      -22.4902900000        6.4440961090        7.9725004055
 N      -19.8977900000        7.3646801926        6.3780020000
Ga      -24.4439980000        9.2058511216        9.5670004055
Ga      -21.8514980000       10.1264352053        7.9725020000
 N      -22.4902900000        9.2058511216        9.5670004055
 N      -19.8977900000       10.1264352053        7.9725020000
Ga      -24.4439980000        6.4440961090       11.1615004055
Ga      -21.8514980000        7.3646801926        9.5670020000
 N      -22.4902900000        6.4440961090       11.1615004055
 N      -19.8977900000        7.3646801926        9.5670020000
Ga      -24.4439980000        9.2058511216       12.7560004055
Ga      -21.8514980000       10.1264352053       11.1615020000
 N      -22.4902900000        9.2058511216       12.7560004055
 N      -19.8977900000       10.1264352053       11.1615020000
Ga      -24.4439980000        6.4440961090       14.3505004055
Ga      -21.8514980000        7.3646801926       12.7560020000
 N      -22.4902900000        6.4440961090       14.3505004055
 N      -19.8977900000        7.3646801926       12.7560020000
Ga      -24.4439980000        9.2058511216       15.9450004055
Ga      -21.8514980000       10.1264352053       14.3505020000
 N      -22.4902900000        9.2058511216       15.9450004055
 N      -19.8977900000       10.1264352053       14.3505020000
Ga      -24.4439980000        6.4440961090       17.5395004055
Ga      -21.8514980000        7.3646801926       15.9450020000
 N      -22.4902900000        6.4440961090       17.5395004055
 N      -19.8977900000        7.3646801926       15.9450020000
Ga      -24.4439980000        9.2058511216       19.1340004055
Ga      -21.8514980000       10.1264352053       17.5395020000
 N      -22.4902900000        9.2058511216       19.1340004055
 N      -19.8977900000       10.1264352053       17.5395020000
Ga      -24.4439980000       11.9676061343        1.5945004055
Ga      -21.8514980000       12.8881902180        0.0000020000
 N      -22.4902900000       11.9676061343        1.5945004055
 N      -19.8977900000       12.8881902180        0.0000020000
Ga      -24.4439980000       14.7293611470        3.1890004055
Ga      -21.8514980000       15.6499452306        1.5945020000
 N      -22.4902900000       14.7293611470        3.1890004055
 N      -19.8977900000       15.6499452306        1.5945020000
Ga      -24.4439980000       11.9676061343        4.7835004055
Ga      -21.8514980000       12.8881902180        3.1890020000
 N      -22.4902900000       11.9676061343        4.7835004055
 N      -19.8977900000       12.8881902180        3.1890020000
Ga      -24.4439980000       14.7293611470        6.3780004055
Ga      -21.8514980000       15.6499452306        4.7835020000
 N      -22.4902900000       14.7293611470        6.3780004055
 N      -19.8977900000       15.6499452306        4.7835020000
Ga      -24.4439980000       11.9676061343        7.9725004055
Ga      -21.8514980000       12.8881902180        6.3780020000
 N      -22.4902900000       11.9676061343        7.9725004055
 N      -19.8977900000       12.8881902180        6.3780020000
Ga      -24.4439980000       14.7293611470        9.5670004055
Ga      -21.8514980000       15.6499452306        7.9725020000
 N      -22.4902900000       14.7293611470        9.5670004055
 N      -19.8977900000       15.6499452306        7.9725020000
Ga      -24.4439980000       11.9676061343       11.1615004055
Ga      -21.8514980000       12.8881902180        9.5670020000
 N      -22.4902900000       11.9676061343       11.1615004055
 N      -19.8977900000       12.8881902180        9.5670020000
Ga      -24.4439980000       14.7293611470       12.7560004055
Ga      -21.8514980000       15.6499452306       11.1615020000
 N      -22.4902900000       14.7293611470       12.7560004055
 N      -19.8977900000       15.6499452306       11.1615020000
Ga      -24.4439980000       11.9676061343       14.3505004055
Ga      -21.8514980000       12.8881902180       12.7560020000
 N      -22.4902900000       11.9676061343       14.3505004055
 N      -19.8977900000       12.8881902180       12.7560020000
Ga      -24.4439980000       14.7293611470       15.9450004055
Ga      -21.8514980000       15.6499452306       14.3505020000
 N      -22.4902900000       14.7293611470       15.9450004055
 N      -19.8977900000       15.6499452306       14.3505020000
Ga      -24.4439980000       11.9676061343       17.5395004055
Ga      -21.8514980000       12.8881902180       15.9450020000
 N      -22.4902900000       11.9676061343       17.5395004055
 N      -19.8977900000       12.8881902180       15.9450020000
Ga      -24.4439980000       14.7293611470       19.1340004055
Ga      -21.8514980000       15.6499452306       17.5395020000
 N      -22.4902900000       14.7293611470       19.1340004055
 N      -19.8977900000       15.6499452306       17.5395020000
Ga      -19.2589980000        0.9205860836        1.5945004055
Ga      -16.6664980000        1.8411701673        0.0000020000
 N      -17.3052900000        0.9205860836        1.5945004055
 N      -14.7127900000        1.8411701673        0.0000020000
Ga      -19.2589980000        3.6823410963        3.1890004055
Ga      -16.6664980000        4.6029251799        1.5945020000
 N      -17.3052900000        3.6823410963        3.1890004055
 N      -14.7127900000        4.6029251799        1.5945020000
Ga      -19.2589980000        0.9205860836        4.7835004055
Ga      -16.6664980000        1.8411701673        3.1890020000
 N      -17.3052900000        0.9205860836        4.7835004055
 N      -14.7127900000        1.8411701673        3.1890020000
Ga      -19.2589980000        3.6823410963        6.3780004055
Ga      -16.6664980000        4.6029251799        4.7835020000
 N      -17.3052900000        3.6823410963        6.3780004055
 N      -14.7127900000        4.6029251799        4.7835020000
Ga      -19.2589980000        0.9205860836        7.9725004055
Ga      -16.6664980000        1.8411701673        6.3780020000
 N      -17.3052900000        0.9205860836        7.9725004055
 N      -14.7127900000        1.8411701673        6.3780020000
Ga      -19.2589980000        3.6823410963        9.5670004055
Ga      -16.6664980000        4.6029251799        7.9725020000
 N      -17.3052900000        3.6823410963        9.5670004055
 N      -14.7127900000        4.6029251799        7.9725020000
Ga      -19.2589980000        0.9205860836       11.1615004055
Ga      -16.6664980000        1.8411701673        9.5670020000
 N      -17.3052900000        0.9205860836       11.1615004055
 N      -14.7127900000        1.8411701673        9.5670020000
Ga      -19.2589980000        3.6823410963       12.7560004055
Ga      -16.6664980000        4.6029251799       11.1615020000
 N      -17.3052900000        3.6823410963       12.7560004055
 N      -14.7127900000        4.6029251799       11.1615020000
Ga      -19.2589980000        0.9205860836       14.3505004055
Ga      -16.6664980000        1.8411701673       12.7560020000
 N      -17.3052900000        0.9205860836       14.3505004055
 N      -14.7127900000        1.8411701673       12.7560020000
Ga      -19.2589980000        3.6823410963       15.9450004055
Ga      -16.6664980000        4.6029251799       14.3505020000
 N      -17.3052900000        3.6823410963       15.9450004055
 N      -14.7127900000        4.6029251799       14.3505020000
Ga      -19.2589980000        0.9205860836       17.5395004055
Ga      -16.6664980000        1.8411701673       15.9450020000
 N      -17.3052900000        0.9205860836       17.5395004055
 N      -14.7127900000        1.8411701673       15.9450020000
Ga      -19.2589980000        3.6823410963       19.1340004055
Ga      -16.6664980000        4.6029251799       17.5395020000
 N      -17.3052900000        3.6823410963       19.1340004055
 N      -14.7127900000        4.6029251799       17.5395020000
Ga      -19.2589980000        6.4440961090        1.5945004055
Ga      -16.6664980000        7.3646801926        0.0000020000
 N      -17.3052900000        6.4440961090        1.5945004055
 N      -14.7127900000        7.3646801926        0.0000020000
Ga      -19.2589980000        9.2058511216        3.1890004055
Ga      -16.6664980000       10.1264352053        1.5945020000
 N      -17.3052900000        9.2058511216        3.1890004055
 N      -14.7127900000       10.1264352053        1.5945020000
Ga      -19.2589980000        6.4440961090        4.7835004055
Ga      -16.6664980000        7.3646801926        3.1890020000
 N      -17.3052900000        6.4440961090        4.7835004055
 N      -14.7127900000        7.3646801926        3.1890020000
Ga      -19.2589980000        9.2058511216        6.3780004055
Ga      -16.6664980000       10.1264352053        4.7835020000
 N      -17.3052900000        9.2058511216        6.3780004055
 N      -14.7127900000       10.1264352053        4.7835020000
Ga      -19.2589980000        6.4440961090        7.9725004055
Ga      -16.6664980000        7.3646801926        6.3780020000
 N      -17.3052900000        6.4440961090        7.9725004055
 N      -14.7127900000        7.3646801926        6.3780020000
Ga      -19.2589980000        9.2058511216        9.5670004055
Ga      -16.6664980000       10.1264352053        7.9725020000
 N      -17.3052900000        9.2058511216        9.5670004055
 N      -14.7127900000       10.1264352053        7.9725020000
Ga      -19.2589980000        6.4440961090       11.1615004055
Ga      -16.6664980000        7.3646801926        9.5670020000
 N      -17.3052900000        6.4440961090       11.1615004055
 N      -14.7127900000        7.3646801926        9.5670020000
Ga      -19.2589980000        9.2058511216       12.7560004055
Ga      -16.6664980000       10.1264352053       11.1615020000
 N      -17.3052900000        9.2058511216       12.7560004055
 N      -14.7127900000       10.1264352053       11.1615020000
Ga      -19.2589980000        6.4440961090       14.3505004055
Ga      -16.6664980000        7.3646801926       12.7560020000
 N      -17.3052900000        6.4440961090       14.3505004055
 N      -14.7127900000        7.3646801926       12.7560020000
Ga      -19.2589980000        9.2058511216       15.9450004055
Ga      -16.6664980000       10.1264352053       14.3505020000
 N      -17.3052900000        9.2058511216       15.9450004055
 N      -14.7127900000       10.1264352053       14.3505020000
Ga      -19.2589980000        6.4440961090       17.5395004055
Ga      -16.6664980000        7.3646801926       15.9450020000
 N      -17.3052900000        6.4440961090       17.5395004055
 N      -14.7127900000        7.3646801926       15.9450020000
Ga      -19.2589980000        9.2058511216       19.1340004055
Ga      -16.6664980000       10.1264352053       17.5395020000
 N      -17.3052900000        9.2058511216       19.1340004055
 N      -14.7127900000       10.1264352053       17.5395020000
Ga      -19.2589980000       11.9676061343        1.5945004055
Ga      -16.6664980000       12.8881902180        0.0000020000
 N      -17.3052900000       11.9676061343        1.5945004055
 N      -14.7127900000       12.8881902180        0.0000020000
Ga      -19.2589980000       14.7293611470        3.1890004055
Ga      -16.6664980000       15.6499452306        1.5945020000
 N      -17.3052900000       14.7293611470        3.1890004055
 N      -14.7127900000       15.6499452306        1.5945020000
Ga      -19.2589980000       11.9676061343        4.7835004055
Ga      -16.6664980000       12.8881902180        3.1890020000
 N      -17.3052900000       11.9676061343        4.7835004055
 N      -14.7127900000       12.8881902180        3.1890020000
Ga      -19.2589980000       14.7293611470        6.3780004055
Ga      -16.6664980000       15.6499452306        4.7835020000
 N      -17.3052900000       14.7293611470        6.3780004055
 N      -14.7127900000       15.6499452306        4.7835020000
Ga      -19.2589980000       11.9676061343        7.9725004055
Ga      -16.6664980000       12.8881902180        6.3780020000
 N      -17.3052900000       11.9676061343        7.9725004055
 N      -14.7127900000       12.8881902180        6.3780020000
Ga      -19.2589980000       14.7293611470        9.5670004055
Ga      -16.6664980000       15.6499452306        7.9725020000
 N      -17.3052900000       14.7293611470        9.5670004055
 N      -14.7127900000       15.6499452306        7.9725020000
Ga      -19.2589980000       11.9676061343       11.1615004055
Ga      -16.6664980000       12.8881902180        9.5670020000
 N      -17.3052900000       11.9676061343       11.1615004055
 N      -14.7127900000       12.8881902180        9.5670020000
Ga      -19.2589980000       14.7293611470       12.7560004055
Ga      -16.6664980000       15.6499452306       11.1615020000
 N      -17.3052900000       14.7293611470       12.7560004055
 N      -14.7127900000       15.6499452306       11.1615020000
Ga      -19.2589980000       11.9676061343       14.3505004055
Ga      -16.6664980000       12.8881902180       12.7560020000
 N      -17.3052900000       11.9676061343       14.3505004055
 N      -14.7127900000       12.8881902180       12.7560020000
Ga      -19.2589980000       14.7293611470       15.9450004055
Ga      -16.6664980000       15.6499452306       14.3505020000
 N      -17.3052900000       14.7293611470       15.9450004055
 N      -14.7127900000       15.6499452306       14.3505020000
Ga      -19.2589980000       11.9676061343       17.5395004055
Ga      -16.6664980000       12.8881902180       15.9450020000
 N      -17.3052900000       11.9676061343       17.5395004055
 N      -14.7127900000       12.8881902180       15.9450020000
Ga      -19.2589980000       14.7293611470       19.1340004055
Ga      -16.6664980000       15.6499452306       17.5395020000
 N      -17.3052900000       14.7293611470       19.1340004055
 N      -14.7127900000       15.6499452306       17.5395020000
Ga      -14.0739980000        0.9205860836        1.5945004055
Ga      -11.4814980000        1.8411701673        0.0000020000
 N      -12.1202900000        0.9205860836        1.5945004055
 N       -9.5277900000        1.8411701673        0.0000020000
Ga      -14.0739980000        3.6823410963        3.1890004055
Ga      -11.4814980000        4.6029251799        1.5945020000
 N      -12.1202900000        3.6823410963        3.1890004055
 N       -9.5277900000        4.6029251799        1.5945020000
Ga      -14.0739980000        0.9205860836        4.7835004055
Ga      -11.4814980000        1.8411701673        3.1890020000
 N      -12.1202900000        0.9205860836        4.7835004055
 N       -9.5277900000        1.8411701673        3.1890020000
Ga      -14.0739980000        3.6823410963        6.3780004055
Ga      -11.4814980000        4.6029251799        4.7835020000
 N      -12.1202900000        3.6823410963        6.3780004055
 N       -9.5277900000        4.6029251799        4.7835020000
Ga      -14.0739980000        0.9205860836        7.9725004055
Ga      -11.4814980000        1.8411701673        6.3780020000
 N      -12.1202900000        0.9205860836        7.9725004055
 N       -9.5277900000        1.8411701673        6.3780020000
Ga      -14.0739980000        3.6823410963        9.5670004055
Ga      -11.4814980000        4.6029251799        7.9725020000
 N      -12.1202900000        3.6823410963        9.5670004055
 N       -9.5277900000        4.6029251799        7.9725020000
Ga      -14.0739980000        0.9205860836       11.1615004055
Ga      -11.4814980000        1.8411701673        9.5670020000
 N      -12.1202900000        0.9205860836       11.1615004055
 N       -9.5277900000        1.8411701673        9.5670020000
Ga      -14.0739980000        3.6823410963       12.7560004055
Ga      -11.4814980000        4.6029251799       11.1615020000
 N      -12.1202900000        3.6823410963       12.7560004055
 N       -9.5277900000        4.6029251799       11.1615020000
Ga      -14.0739980000        0.9205860836       14.3505004055
Ga      -11.4814980000        1.8411701673       12.7560020000
 N      -12.1202900000        0.9205860836       14.3505004055
 N       -9.5277900000        1.8411701673       12.7560020000
Ga      -14.0739980000        3.6823410963       15.9450004055
Ga      -11.4814980000        4.6029251799       14.3505020000
 N      -12.1202900000        3.6823410963       15.9450004055
 N       -9.5277900000        4.6029251799       14.3505020000
Ga      -14.0739980000        0.9205860836       17.5395004055
Ga      -11.4814980000        1.8411701673       15.9450020000
 N      -12.1202900000        0.9205860836       17.5395004055
 N       -9.5277900000        1.8411701673       15.9450020000
Ga      -14.0739980000        3.6823410963       19.1340004055
Ga      -11.4814980000        4.6029251799       17.5395020000
 N      -12.1202900000        3.6823410963       19.1340004055
 N       -9.5277900000        4.6029251799       17.5395020000
Ga      -14.0739980000        6.4440961090        1.5945004055
Ga      -11.4814980000        7.3646801926        0.0000020000
 N      -12.1202900000        6.4440961090        1.5945004055
 N       -9.5277900000        7.3646801926        0.0000020000
Ga      -14.0739980000        9.2058511216        3.1890004055
Ga      -11.4814980000       10.1264352053        1.5945020000
 N      -12.1202900000        9.2058511216        3.1890004055
 N       -9.5277900000       10.1264352053        1.5945020000
Ga      -14.0739980000        6.4440961090        4.7835004055
Ga      -11.4814980000        7.3646801926        3.1890020000
 N      -12.1202900000        6.4440961090        4.7835004055
 N       -9.5277900000        7.3646801926        3.1890020000
Ga      -14.0739980000        9.2058511216        6.3780004055
Ga      -11.4814980000       10.1264352053        4.7835020000
 N      -12.1202900000        9.2058511216        6.3780004055
 N       -9.5277900000       10.1264352053        4.7835020000
Ga      -14.0739980000        6.4440961090        7.9725004055
Ga      -11.4814980000        7.3646801926        6.3780020000
 N      -12.1202900000        6.4440961090        7.9725004055
 N       -9.5277900000        7.3646801926        6.3780020000
Ga      -14.0739980000        9.2058511216        9.5670004055
Ga      -11.4814980000       10.1264352053        7.9725020000
 N      -12.1202900000        9.2058511216        9.5670004055
 N       -9.5277900000       10.1264352053        7.9725020000
Ga      -14.0739980000        6.4440961090       11.1615004055
Ga      -11.4814980000        7.3646801926        9.5670020000
 N      -12.1202900000        6.4440961090       11.1615004055
 N       -9.5277900000        7.3646801926        9.5670020000
Ga      -14.0739980000        9.2058511216       12.7560004055
Ga      -11.4814980000       10.1264352053       11.1615020000
 N      -12.1202900000        9.2058511216       12.7560004055
 N       -9.5277900000       10.1264352053       11.1615020000
Ga      -14.0739980000        6.4440961090       14.3505004055
Ga      -11.4814980000        7.3646801926       12.7560020000
 N      -12.1202900000        6.4440961090       14.3505004055
 N       -9.5277900000        7.3646801926       12.7560020000
Ga      -14.0739980000        9.2058511216       15.9450004055
Ga      -11.4814980000       10.1264352053       14.3505020000
 N      -12.1202900000        9.2058511216       15.9450004055
 N       -9.5277900000       10.1264352053       14.3505020000
Ga      -14.0739980000        6.4440961090       17.5395004055
Ga      -11.4814980000        7.3646801926       15.9450020000
 N      -12.1202900000        6.4440961090       17.5395004055
 N       -9.5277900000        7.3646801926       15.9450020000
Ga      -14.0739980000        9.2058511216       19.1340004055
Ga      -11.4814980000       10.1264352053       17.5395020000
 N      -12.1202900000        9.2058511216       19.1340004055
 N       -9.5277900000       10.1264352053       17.5395020000
Ga      -14.0739980000       11.9676061343        1.5945004055
Ga      -11.4814980000       12.8881902180        0.0000020000
 N      -12.1202900000       11.9676061343        1.5945004055
 N       -9.5277900000       12.8881902180        0.0000020000
Ga      -14.0739980000       14.7293611470        3.1890004055
Ga      -11.4814980000       15.6499452306        1.5945020000
 N      -12.1202900000       14.7293611470        3.1890004055
 N       -9.5277900000       15.6499452306        1.5945020000
Ga      -14.0739980000       11.9676061343        4.7835004055
Ga      -11.4814980000       12.8881902180        3.1890020000
 N      -12.1202900000       11.9676061343        4.7835004055
 N       -9.5277900000       12.8881902180        3.1890020000
Ga      -14.0739980000       14.7293611470        6.3780004055
Ga      -11.4814980000       15.6499452306        4.7835020000
 N      -12.1202900000       14.7293611470        6.3780004055
 N       -9.5277900000       15.6499452306        4.7835020000
Ga      -14.0739980000       11.9676061343        7.9725004055
Ga      -11.4814980000       12.8881902180        6.3780020000
 N      -12.1202900000       11.9676061343        7.9725004055
 N       -9.5277900000       12.8881902180        6.3780020000
Ga      -14.0739980000       14.7293611470        9.5670004055
Ga      -11.4814980000       15.6499452306        7.9725020000
 N      -12.1202900000       14.7293611470        9.5670004055
 N       -9.5277900000       15.6499452306        7.9725020000
Ga      -14.0739980000       11.9676061343       11.1615004055
Ga      -11.4814980000       12.8881902180        9.5670020000
 N      -12.1202900000       11.9676061343       11.1615004055
 N       -9.5277900000       12.8881902180        9.5670020000
Ga      -14.0739980000       14.7293611470       12.7560004055
Ga      -11.4814980000       15.6499452306       11.1615020000
 N      -12.1202900000       14.7293611470       12.7560004055
 N       -9.5277900000       15.6499452306       11.1615020000
Ga      -14.0739980000       11.9676061343       14.3505004055
Ga      -11.4814980000       12.8881902180       12.7560020000
 N      -12.1202900000       11.9676061343       14.3505004055
 N       -9.5277900000       12.8881902180       12.7560020000
Ga      -14.0739980000       14.7293611470       15.9450004055
Ga      -11.4814980000       15.6499452306       14.3505020000
 N      -12.1202900000       14.7293611470       15.9450004055
 N       -9.5277900000       15.6499452306       14.3505020000
Ga      -14.0739980000       11.9676061343       17.5395004055
Ga      -11.4814980000       12.8881902180       15.9450020000
 N      -12.1202900000       11.9676061343       17.5395004055
 N       -9.5277900000       12.8881902180       15.9450020000
Ga      -14.0739980000       14.7293611470       19.1340004055
Ga      -11.4814980000       15.6499452306       17.5395020000
 N      -12.1202900000       14.7293611470       19.1340004055
 N       -9.5277900000       15.6499452306       17.5395020000
Ga       -8.8889980000        0.9205860836        1.5945004055
Ga       -6.2964980000        1.8411701673        0.0000020000
 N       -6.9352900000        0.9205860836        1.5945004055
 N       -4.3427900000        1.8411701673        0.0000020000
Ga       -8.8889980000        3.6823410963        3.1890004055
Ga       -6.2964980000        4.6029251799        1.5945020000
 N       -6.9352900000        3.6823410963        3.1890004055
 N       -4.3427900000        4.6029251799        1.5945020000
Ga       -8.8889980000        0.9205860836        4.7835004055
Ga       -6.2964980000        1.8411701673        3.1890020000
 N       -6.9352900000        0.9205860836        4.7835004055
 N       -4.3427900000        1.8411701673        3.1890020000
Ga       -8.8889980000        3.6823410963        6.3780004055
Ga       -6.2964980000        4.6029251799        4.7835020000
 N       -6.9352900000        3.6823410963        6.3780004055
 N       -4.3427900000        4.6029251799        4.7835020000
Ga       -8.8889980000        0.9205860836        7.9725004055
Ga       -6.2964980000        1.8411701673        6.3780020000
 N       -6.9352900000        0.9205860836        7.9725004055
 N       -4.3427900000        1.8411701673        6.3780020000
Ga       -8.8889980000        3.6823410963        9.5670004055
Ga       -6.2964980000        4.6029251799        7.9725020000
 N       -6.9352900000        3.6823410963        9.5670004055
 N       -4.3427900000        4.6029251799        7.9725020000
Ga       -8.8889980000        0.9205860836       11.1615004055
Ga       -6.2964980000        1.8411701673        9.5670020000
 N       -6.9352900000        0.9205860836       11.1615004055
 N       -4.3427900000        1.8411701673        9.5670020000
Ga       -8.8889980000        3.6823410963       12.7560004055
Ga       -6.2964980000        4.6029251799       11.1615020000
 N       -6.9352900000        3.6823410963       12.7560004055
 N       -4.3427900000        4.6029251799       11.1615020000
Ga       -8.8889980000        0.9205860836       14.3505004055
Ga       -6.2964980000        1.8411701673       12.7560020000
 N       -6.9352900000        0.9205860836       14.3505004055
 N       -4.3427900000        1.8411701673       12.7560020000
Ga       -8.8889980000        3.6823410963       15.9450004055
Ga       -6.2964980000        4.6029251799       14.3505020000
 N       -6.9352900000        3.6823410963       15.9450004055
 N       -4.3427900000        4.6029251799       14.3505020000
Ga       -8.8889980000        0.9205860836       17.5395004055
Ga       -6.2964980000        1.8411701673       15.9450020000
 N       -6.9352900000        0.9205860836       17.5395004055
 N       -4.3427900000        1.8411701673       15.9450020000
Ga       -8.8889980000        3.6823410963       19.1340004055
Ga       -6.2964980000        4.6029251799       17.5395020000
 N       -6.9352900000        3.6823410963       19.1340004055
 N       -4.3427900000        4.6029251799       17.5395020000
Ga       -8.8889980000        6.4440961090        1.5945004055
Ga       -6.2964980000        7.3646801926        0.0000020000
 N       -6.9352900000        6.4440961090        1.5945004055
 N       -4.3427900000        7.3646801926        0.0000020000
Ga       -8.8889980000        9.2058511216        3.1890004055
Ga       -6.2964980000       10.1264352053        1.5945020000
 N       -6.9352900000        9.2058511216        3.1890004055
 N       -4.3427900000       10.1264352053        1.5945020000
Ga       -8.8889980000        6.4440961090        4.7835004055
Ga       -6.2964980000        7.3646801926        3.1890020000
 N       -6.9352900000        6.4440961090        4.7835004055
 N       -4.3427900000        7.3646801926        3.1890020000
Ga       -8.8889980000        9.2058511216        6.3780004055
Ga       -6.2964980000       10.1264352053        4.7835020000
 N       -6.9352900000        9.2058511216        6.3780004055
 N       -4.3427900000       10.1264352053        4.7835020000
Ga       -8.8889980000        6.4440961090        7.9725004055
Ga       -6.2964980000        7.3646801926        6.3780020000
 N       -6.9352900000        6.4440961090        7.9725004055
 N       -4.3427900000        7.3646801926        6.3780020000
Ga       -8.8889980000        9.2058511216        9.5670004055
Ga       -6.2964980000       10.1264352053        7.9725020000
 N       -6.9352900000        9.2058511216        9.5670004055
 N       -4.3427900000       10.1264352053        7.9725020000
Ga       -8.8889980000        6.4440961090       11.1615004055
Ga       -6.2964980000        7.3646801926        9.5670020000
 N       -6.9352900000        6.4440961090       11.1615004055
 N       -4.3427900000        7.3646801926        9.5670020000
Ga       -8.8889980000        9.2058511216       12.7560004055
Ga       -6.2964980000       10.1264352053       11.1615020000
 N       -6.9352900000        9.2058511216       12.7560004055
 N       -4.3427900000       10.1264352053       11.1615020000
Ga       -8.8889980000        6.4440961090       14.3505004055
Ga       -6.2964980000        7.3646801926       12.7560020000
 N       -6.9352900000        6.4440961090       14.3505004055
 N       -4.3427900000        7.3646801926       12.7560020000
Ga       -8.8889980000        9.2058511216       15.9450004055
Ga       -6.2964980000       10.1264352053       14.3505020000
 N       -6.9352900000        9.2058511216       15.9450004055
 N       -4.3427900000       10.1264352053       14.3505020000
Ga       -8.8889980000        6.4440961090       17.5395004055
Ga       -6.2964980000        7.3646801926       15.9450020000
 N       -6.9352900000        6.4440961090       17.5395004055
 N       -4.3427900000        7.3646801926       15.9450020000
Ga       -8.8889980000        9.2058511216       19.1340004055
Ga       -6.2964980000       10.1264352053       17.5395020000
 N       -6.9352900000        9.2058511216       19.1340004055
 N       -4.3427900000       10.1264352053       17.5395020000
Ga       -8.8889980000       11.9676061343        1.5945004055
Ga       -6.2964980000       12.8881902180        0.0000020000
 N       -6.9352900000       11.9676061343        1.5945004055
 N       -4.3427900000       12.8881902180        0.0000020000
Ga       -8.8889980000       14.7293611470        3.1890004055
Ga       -6.2964980000       15.6499452306        1.5945020000
 N       -6.9352900000       14.7293611470        3.1890004055
 N       -4.3427900000       15.6499452306        1.5945020000
Ga       -8.8889980000       11.9676061343        4.7835004055
Ga       -6.2964980000       12.8881902180        3.1890020000
 N       -6.9352900000       11.9676061343        4.7835004055
 N       -4.3427900000       12.8881902180        3.1890020000
Ga       -8.8889980000       14.7293611470        6.3780004055
Ga       -6.2964980000       15.6499452306        4.7835020000
 N       -6.9352900000       14.7293611470        6.3780004055
 N       -4.3427900000       15.6499452306        4.7835020000
Ga       -8.8889980000       11.9676061343        7.9725004055
Ga       -6.2964980000       12.8881902180        6.3780020000
 N       -6.9352900000       11.9676061343        7.9725004055
 N       -4.3427900000       12.8881902180        6.3780020000
Ga       -8.8889980000       14.7293611470        9.5670004055
Ga       -6.2964980000       15.6499452306        7.9725020000
 N       -6.9352900000       14.7293611470        9.5670004055
 N       -4.3427900000       15.6499452306        7.9725020000
Ga       -8.8889980000       11.9676061343       11.1615004055
Ga       -6.2964980000       12.8881902180        9.5670020000
 N       -6.9352900000       11.9676061343       11.1615004055
 N       -4.3427900000       12.8881902180        9.5670020000
Ga       -8.8889980000       14.7293611470       12.7560004055
Ga       -6.2964980000       15.6499452306       11.1615020000
 N       -6.9352900000       14.7293611470       12.7560004055
 N       -4.3427900000       15.6499452306       11.1615020000
Ga       -8.8889980000       11.9676061343       14.3505004055
Ga       -6.2964980000       12.8881902180       12.7560020000
 N       -6.9352900000       11.9676061343       14.3505004055
 N       -4.3427900000       12.8881902180       12.7560020000
Ga       -8.8889980000       14.7293611470       15.9450004055
Ga       -6.2964980000       15.6499452306       14.3505020000
 N       -6.9352900000       14.7293611470       15.9450004055
 N       -4.3427900000       15.6499452306       14.3505020000
Ga       -8.8889980000       11.9676061343       17.5395004055
Ga       -6.2964980000       12.8881902180       15.9450020000
 N       -6.9352900000       11.9676061343       17.5395004055
 N       -4.3427900000       12.8881902180       15.9450020000
Ga       -8.8889980000       14.7293611470       19.1340004055
Ga       -6.2964980000       15.6499452306       17.5395020000
 N       -6.9352900000       14.7293611470       19.1340004055
 N       -4.3427900000       15.6499452306       17.5395020000
Ga       -3.7039980000        0.9205860836        1.5945004055
Ga       -1.1114980000        1.8411701673        0.0000020000
 N       -1.7502900000        0.9205860836        1.5945004055
 N        0.8422100000        1.8411701673        0.0000020000
Ga       -3.7039980000        3.6823410963        3.1890004055
Ga       -1.1114980000        4.6029251799        1.5945020000
 N       -1.7502900000        3.6823410963        3.1890004055
 N        0.8422100000        4.6029251799        1.5945020000
Ga       -3.7039980000        0.9205860836        4.7835004055
Ga       -1.1114980000        1.8411701673        3.1890020000
 N       -1.7502900000        0.9205860836        4.7835004055
 N        0.8422100000        1.8411701673        3.1890020000
Ga       -3.7039980000        3.6823410963        6.3780004055
Ga       -1.1114980000        4.6029251799        4.7835020000
 N       -1.7502900000        3.6823410963        6.3780004055
 N        0.8422100000        4.6029251799        4.7835020000
Ga       -3.7039980000        0.9205860836        7.9725004055
Ga       -1.1114980000        1.8411701673        6.3780020000
 N       -1.7502900000        0.9205860836        7.9725004055
 N        0.8422100000        1.8411701673        6.3780020000
Ga       -3.7039980000        3.6823410963        9.5670004055
Ga       -1.1114980000        4.6029251799        7.9725020000
 N       -1.7502900000        3.6823410963        9.5670004055
 N        0.8422100000        4.6029251799        7.9725020000
Ga       -3.7039980000        0.9205860836       11.1615004055
Ga       -1.1114980000        1.8411701673        9.5670020000
 N       -1.7502900000        0.9205860836       11.1615004055
 N        0.8422100000        1.8411701673        9.5670020000
Ga       -3.7039980000        3.6823410963       12.7560004055
Ga       -1.1114980000        4.6029251799       11.1615020000
 N       -1.7502900000        3.6823410963       12.7560004055
 N        0.8422100000        4.6029251799       11.1615020000
Ga       -3.7039980000        0.9205860836       14.3505004055
Ga       -1.1114980000        1.8411701673       12.7560020000
 N       -1.7502900000        0.9205860836       14.3505004055
 N        0.8422100000        1.8411701673       12.7560020000
Ga       -3.7039980000        3.6823410963       15.9450004055
Ga       -1.1114980000        4.6029251799       14.3505020000
 N       -1.7502900000        3.6823410963       15.9450004055
 N        0.8422100000        4.6029251799       14.3505020000
Ga       -3.7039980000        0.9205860836       17.5395004055
Ga       -1.1114980000        1.8411701673       15.9450020000
 N       -1.7502900000        0.9205860836       17.5395004055
 N        0.8422100000        1.8411701673       15.9450020000
Ga       -3.7039980000        3.6823410963       19.1340004055
Ga       -1.1114980000        4.6029251799       17.5395020000
 N       -1.7502900000        3.6823410963       19.1340004055
 N        0.8422100000        4.6029251799       17.5395020000
Ga       -3.7039980000        6.4440961090        1.5945004055
Ga       -1.1114980000        7.3646801926        0.0000020000
 N       -1.7502900000        6.4440961090        1.5945004055
 N        0.8422100000        7.3646801926        0.0000020000
Ga       -3.7039980000        9.2058511216        3.1890004055
Ga       -1.1114980000       10.1264352053        1.5945020000
 N       -1.7502900000        9.2058511216        3.1890004055
 N        0.8422100000       10.1264352053        1.5945020000
Ga       -3.7039980000        6.4440961090        4.7835004055
Ga       -1.1114980000        7.3646801926        3.1890020000
 N       -1.7502900000        6.4440961090        4.7835004055
 N        0.8422100000        7.3646801926        3.1890020000
Ga       -3.7039980000        9.2058511216        6.3780004055
Ga       -1.1114980000       10.1264352053        4.7835020000
 N       -1.7502900000        9.2058511216        6.3780004055
 N        0.8422100000       10.1264352053        4.7835020000
Ga       -3.7039980000        6.4440961090        7.9725004055
Ga       -1.1114980000        7.3646801926        6.3780020000
 N       -1.7502900000        6.4440961090        7.9725004055
 N        0.8422100000        7.3646801926        6.3780020000
Ga       -3.7039980000        9.2058511216        9.5670004055
Ga       -1.1114980000       10.1264352053        7.9725020000
 N       -1.7502900000        9.2058511216        9.5670004055
 N        0.8422100000       10.1264352053        7.9725020000
Ga       -3.7039980000        6.4440961090       11.1615004055
Ga       -1.1114980000        7.3646801926        9.5670020000
 N       -1.7502900000        6.4440961090       11.1615004055
 N        0.8422100000        7.3646801926        9.5670020000
Ga       -3.7039980000        9.2058511216       12.7560004055
Ga       -1.1114980000       10.1264352053       11.1615020000
 N       -1.7502900000        9.2058511216       12.7560004055
 N        0.8422100000       10.1264352053       11.1615020000
Ga       -3.7039980000        6.4440961090       14.3505004055
Ga       -1.1114980000        7.3646801926       12.7560020000
 N       -1.7502900000        6.4440961090       14.3505004055
 N        0.8422100000        7.3646801926       12.7560020000
Ga       -3.7039980000        9.2058511216       15.9450004055
Ga       -1.1114980000       10.1264352053       14.3505020000
 N       -1.7502900000        9.2058511216       15.9450004055
 N        0.8422100000       10.1264352053       14.3505020000
Ga       -3.7039980000        6.4440961090       17.5395004055
Ga       -1.1114980000        7.3646801926       15.9450020000
 N       -1.7502900000        6.4440961090       17.5395004055
 N        0.8422100000        7.3646801926       15.9450020000
Ga       -3.7039980000        9.2058511216       19.1340004055
Ga       -1.1114980000       10.1264352053       17.5395020000
 N       -1.7502900000        9.2058511216       19.1340004055
 N        0.8422100000       10.1264352053       17.5395020000
Ga       -3.7039980000       11.9676061343        1.5945004055
Ga       -1.1114980000       12.8881902180        0.0000020000
 N       -1.7502900000       11.9676061343        1.5945004055
 N        0.8422100000       12.8881902180        0.0000020000
Ga       -3.7039980000       14.7293611470        3.1890004055
Ga       -1.1114980000       15.6499452306        1.5945020000
 N       -1.7502900000       14.7293611470        3.1890004055
 N        0.8422100000       15.6499452306        1.5945020000
Ga       -3.7039980000       11.9676061343        4.7835004055
Ga       -1.1114980000       12.8881902180        3.1890020000
 N       -1.7502900000       11.9676061343        4.7835004055
 N        0.8422100000       12.8881902180        3.1890020000
Ga       -3.7039980000       14.7293611470        6.3780004055
Ga       -1.1114980000       15.6499452306        4.7835020000
 N       -1.7502900000       14.7293611470        6.3780004055
 N        0.8422100000       15.6499452306        4.7835020000
Ga       -3.7039980000       11.9676061343        7.9725004055
Ga       -1.1114980000       12.8881902180        6.3780020000
 N       -1.7502900000       11.9676061343        7.9725004055
 N        0.8422100000       12.8881902180        6.3780020000
Ga       -3.7039980000       14.7293611470        9.5670004055
Ga       -1.1114980000       15.6499452306        7.9725020000
 N       -1.7502900000       14.7293611470        9.5670004055
 N        0.8422100000       15.6499452306        7.9725020000
Ga       -3.7039980000       11.9676061343       11.1615004055
Ga       -1.1114980000       12.8881902180        9.5670020000
 N       -1.7502900000       11.9676061343       11.1615004055
 N        0.8422100000       12.8881902180        9.5670020000
Ga       -3.7039980000       14.7293611470       12.7560004055
Ga       -1.1114980000       15.6499452306       11.1615020000
 N       -1.7502900000       14.7293611470       12.7560004055
 N        0.8422100000       15.6499452306       11.1615020000
Ga       -3.7039980000       11.9676061343       14.3505004055
Ga       -1.1114980000       12.8881902180       12.7560020000
 N       -1.7502900000       11.9676061343       14.3505004055
 N        0.8422100000       12.8881902180       12.7560020000
Ga       -3.7039980000       14.7293611470       15.9450004055
Ga       -1.1114980000       15.6499452306       14.3505020000
 N       -1.7502900000       14.7293611470       15.9450004055
 N        0.8422100000       15.6499452306       14.3505020000
Ga       -3.7039980000       11.9676061343       17.5395004055
Ga       -1.1114980000       12.8881902180       15.9450020000
 N       -1.7502900000       11.9676061343       17.5395004055
 N        0.8422100000       12.8881902180       15.9450020000
Ga       -3.7039980000       14.7293611470       19.1340004055
Ga       -1.1114980000       15.6499452306       17.5395020000
 N       -1.7502900000       14.7293611470       19.1340004055
 N        0.8422100000       15.6499452306       17.5395020000
Ga        1.4810020000        0.9205860836        1.5945004055
In        4.0735020000        1.8411701673        0.0000020000
 N        3.4347100000        0.9205860836        1.5945004055
 N        6.0272100000        1.8411701673        0.0000020000
In        1.4810020000        3.6823410963        3.1890004055
Ga        4.0735020000        4.6029251799        1.5945020000
 N        3.4347100000        3.6823410963        3.1890004055
 N        6.0272100000        4.6029251799        1.5945020000
Ga        1.4810020000        0.9205860836        4.7835004055
In        4.0735020000        1.8411701673        3.1890020000
 N        3.4347100000        0.9205860836        4.7835004055
 N        6.0272100000        1.8411701673        3.1890020000
Ga        1.4810020000        3.6823410963        6.3780004055
Ga        4.0735020000        4.6029251799        4.7835020000
 N        3.4347100000        3.6823410963        6.3780004055
 N        6.0272100000        4.6029251799        4.7835020000
Ga        1.4810020000        0.9205860836        7.9725004055
In        4.0735020000        1.8411701673        6.3780020000
 N        3.4347100000        0.9205860836        7.9725004055
 N        6.0272100000        1.8411701673        6.3780020000
Ga        1.4810020000        3.6823410963        9.5670004055
Ga        4.0735020000        4.6029251799        7.9725020000
 N        3.4347100000        3.6823410963        9.5670004055
 N        6.0272100000        4.6029251799        7.9725020000
In        1.4810020000        0.9205860836       11.1615004055
Ga        4.0735020000        1.8411701673        9.5670020000
 N        3.4347100000        0.9205860836       11.1615004055
 N        6.0272100000        1.8411701673        9.5670020000
Ga        1.4810020000        3.6823410963       12.7560004055
Ga        4.0735020000        4.6029251799       11.1615020000
 N        3.4347100000        3.6823410963       12.7560004055
 N        6.0272100000        4.6029251799       11.1615020000
Ga        1.4810020000        0.9205860836       14.3505004055
Ga        4.0735020000        1.8411701673       12.7560020000
 N        3.4347100000        0.9205860836       14.3505004055
 N        6.0272100000        1.8411701673       12.7560020000
Ga        1.4810020000        3.6823410963       15.9450004055
Ga        4.0735020000        4.6029251799       14.3505020000
 N        3.4347100000        3.6823410963       15.9450004055
 N        6.0272100000        4.6029251799       14.3505020000
Ga        1.4810020000        0.9205860836       17.5395004055
In        4.0735020000        1.8411701673       15.9450020000
 N        3.4347100000        0.9205860836       17.5395004055
 N        6.0272100000        1.8411701673       15.9450020000
Ga        1.4810020000        3.6823410963       19.1340004055
Ga        4.0735020000        4.6029251799       17.5395020000
 N        3.4347100000        3.6823410963       19.1340004055
 N        6.0272100000        4.6029251799       17.5395020000
Ga        1.4810020000        6.4440961090        1.5945004055
In        4.0735020000        7.3646801926        0.0000020000
 N        3.4347100000        6.4440961090        1.5945004055
 N        6.0272100000        7.3646801926        0.0000020000
In        1.4810020000        9.2058511216        3.1890004055
Ga        4.0735020000       10.1264352053        1.5945020000
 N        3.4347100000        9.2058511216        3.1890004055
 N        6.0272100000       10.1264352053        1.5945020000
In        1.4810020000        6.4440961090        4.7835004055
Ga        4.0735020000        7.3646801926        3.1890020000
 N        3.4347100000        6.4440961090        4.7835004055
 N        6.0272100000        7.3646801926        3.1890020000
Ga        1.4810020000        9.2058511216        6.3780004055
In        4.0735020000       10.1264352053        4.7835020000
 N        3.4347100000        9.2058511216        6.3780004055
 N        6.0272100000       10.1264352053        4.7835020000
Ga        1.4810020000        6.4440961090        7.9725004055
In        4.0735020000        7.3646801926        6.3780020000
 N        3.4347100000        6.4440961090        7.9725004055
 N        6.0272100000        7.3646801926        6.3780020000
Ga        1.4810020000        9.2058511216        9.5670004055
Ga        4.0735020000       10.1264352053        7.9725020000
 N        3.4347100000        9.2058511216        9.5670004055
 N        6.0272100000       10.1264352053        7.9725020000
In        1.4810020000        6.4440961090       11.1615004055
Ga        4.0735020000        7.3646801926        9.5670020000
 N        3.4347100000        6.4440961090       11.1615004055
 N        6.0272100000        7.3646801926        9.5670020000
Ga        1.4810020000        9.2058511216       12.7560004055
Ga        4.0735020000       10.1264352053       11.1615020000
 N        3.4347100000        9.2058511216       12.7560004055
 N        6.0272100000       10.1264352053       11.1615020000
Ga        1.4810020000        6.4440961090       14.3505004055
Ga        4.0735020000        7.3646801926       12.7560020000
 N        3.4347100000        6.4440961090       14.3505004055
 N        6.0272100000        7.3646801926       12.7560020000
Ga        1.4810020000        9.2058511216       15.9450004055
Ga        4.0735020000       10.1264352053       14.3505020000
 N        3.4347100000        9.2058511216       15.9450004055
 N        6.0272100000       10.1264352053       14.3505020000
Ga        1.4810020000        6.4440961090       17.5395004055
Ga        4.0735020000        7.3646801926       15.9450020000
 N        3.4347100000        6.4440961090       17.5395004055
 N        6.0272100000        7.3646801926       15.9450020000
In        1.4810020000        9.2058511216       19.1340004055
Ga        4.0735020000       10.1264352053       17.5395020000
 N        3.4347100000        9.2058511216       19.1340004055
 N        6.0272100000       10.1264352053       17.5395020000
Ga        1.4810020000       11.9676061343        1.5945004055
In        4.0735020000       12.8881902180        0.0000020000
 N        3.4347100000       11.9676061343        1.5945004055
 N        6.0272100000       12.8881902180        0.0000020000
Ga        1.4810020000       14.7293611470        3.1890004055
Ga        4.0735020000       15.6499452306        1.5945020000
 N        3.4347100000       14.7293611470        3.1890004055
 N        6.0272100000       15.6499452306        1.5945020000
In        1.4810020000       11.9676061343        4.7835004055
In        4.0735020000       12.8881902180        3.1890020000
 N        3.4347100000       11.9676061343        4.7835004055
 N        6.0272100000       12.8881902180        3.1890020000
Ga        1.4810020000       14.7293611470        6.3780004055
Ga        4.0735020000       15.6499452306        4.7835020000
 N        3.4347100000       14.7293611470        6.3780004055
 N        6.0272100000       15.6499452306        4.7835020000
In        1.4810020000       11.9676061343        7.9725004055
Ga        4.0735020000       12.8881902180        6.3780020000
 N        3.4347100000       11.9676061343        7.9725004055
 N        6.0272100000       12.8881902180        6.3780020000
Ga        1.4810020000       14.7293611470        9.5670004055
Ga        4.0735020000       15.6499452306        7.9725020000
 N        3.4347100000       14.7293611470        9.5670004055
 N        6.0272100000       15.6499452306        7.9725020000
Ga        1.4810020000       11.9676061343       11.1615004055
Ga        4.0735020000       12.8881902180        9.5670020000
 N        3.4347100000       11.9676061343       11.1615004055
 N        6.0272100000       12.8881902180        9.5670020000
In        1.4810020000       14.7293611470       12.7560004055
In        4.0735020000       15.6499452306       11.1615020000
 N        3.4347100000       14.7293611470       12.7560004055
 N        6.0272100000       15.6499452306       11.1615020000
In        1.4810020000       11.9676061343       14.3505004055
Ga        4.0735020000       12.8881902180       12.7560020000
 N        3.4347100000       11.9676061343       14.3505004055
 N        6.0272100000       12.8881902180       12.7560020000
Ga        1.4810020000       14.7293611470       15.9450004055
Ga        4.0735020000       15.6499452306       14.3505020000
 N        3.4347100000       14.7293611470       15.9450004055
 N        6.0272100000       15.6499452306       14.3505020000
Ga        1.4810020000       11.9676061343       17.5395004055
Ga        4.0735020000       12.8881902180       15.9450020000
 N        3.4347100000       11.9676061343       17.5395004055
 N        6.0272100000       12.8881902180       15.9450020000
Ga        1.4810020000       14.7293611470       19.1340004055
Ga        4.0735020000       15.6499452306       17.5395020000
 N        3.4347100000       14.7293611470       19.1340004055
 N        6.0272100000       15.6499452306       17.5395020000
In        6.6660020000        0.9205860836        1.5945004055
In        9.2585020000        1.8411701673        0.0000020000
 N        8.6197100000        0.9205860836        1.5945004055
 N       11.2122100000        1.8411701673        0.0000020000
Ga        6.6660020000        3.6823410963        3.1890004055
In        9.2585020000        4.6029251799        1.5945020000
 N        8.6197100000        3.6823410963        3.1890004055
 N       11.2122100000        4.6029251799        1.5945020000
Ga        6.6660020000        0.9205860836        4.7835004055
Ga        9.2585020000        1.8411701673        3.1890020000
 N        8.6197100000        0.9205860836        4.7835004055
 N       11.2122100000        1.8411701673        3.1890020000
Ga        6.6660020000        3.6823410963        6.3780004055
Ga        9.2585020000        4.6029251799        4.7835020000
 N        8.6197100000        3.6823410963        6.3780004055
 N       11.2122100000        4.6029251799        4.7835020000
Ga        6.6660020000        0.9205860836        7.9725004055
Ga        9.2585020000        1.8411701673        6.3780020000
 N        8.6197100000        0.9205860836        7.9725004055
 N       11.2122100000        1.8411701673        6.3780020000
Ga        6.6660020000        3.6823410963        9.5670004055
Ga        9.2585020000        4.6029251799        7.9725020000
 N        8.6197100000        3.6823410963        9.5670004055
 N       11.2122100000        4.6029251799        7.9725020000
In        6.6660020000        0.9205860836       11.1615004055
In        9.2585020000        1.8411701673        9.5670020000
 N        8.6197100000        0.9205860836       11.1615004055
 N       11.2122100000        1.8411701673        9.5670020000
Ga        6.6660020000        3.6823410963       12.7560004055
In        9.2585020000        4.6029251799       11.1615020000
 N        8.6197100000        3.6823410963       12.7560004055
 N       11.2122100000        4.6029251799       11.1615020000
Ga        6.6660020000        0.9205860836       14.3505004055
Ga        9.2585020000        1.8411701673       12.7560020000
 N        8.6197100000        0.9205860836       14.3505004055
 N       11.2122100000        1.8411701673       12.7560020000
In        6.6660020000        3.6823410963       15.9450004055
Ga        9.2585020000        4.6029251799       14.3505020000
 N        8.6197100000        3.6823410963       15.9450004055
 N       11.2122100000        4.6029251799       14.3505020000
Ga        6.6660020000        0.9205860836       17.5395004055
Ga        9.2585020000        1.8411701673       15.9450020000
 N        8.6197100000        0.9205860836       17.5395004055
 N       11.2122100000        1.8411701673       15.9450020000
Ga        6.6660020000        3.6823410963       19.1340004055
Ga        9.2585020000        4.6029251799       17.5395020000
 N        8.6197100000        3.6823410963       19.1340004055
 N       11.2122100000        4.6029251799       17.5395020000
Ga        6.6660020000        6.4440961090        1.5945004055
Ga        9.2585020000        7.3646801926        0.0000020000
 N        8.6197100000        6.4440961090        1.5945004055
 N       11.2122100000        7.3646801926        0.0000020000
Ga        6.6660020000        9.2058511216        3.1890004055
Ga        9.2585020000       10.1264352053        1.5945020000
 N        8.6197100000        9.2058511216        3.1890004055
 N       11.2122100000       10.1264352053        1.5945020000
In        6.6660020000        6.4440961090        4.7835004055
Ga        9.2585020000        7.3646801926        3.1890020000
 N        8.6197100000        6.4440961090        4.7835004055
 N       11.2122100000        7.3646801926        3.1890020000
Ga        6.6660020000        9.2058511216        6.3780004055
Ga        9.2585020000       10.1264352053        4.7835020000
 N        8.6197100000        9.2058511216        6.3780004055
 N       11.2122100000       10.1264352053        4.7835020000
Ga        6.6660020000        6.4440961090        7.9725004055
In        9.2585020000        7.3646801926        6.3780020000
 N        8.6197100000        6.4440961090        7.9725004055
 N       11.2122100000        7.3646801926        6.3780020000
Ga        6.6660020000        9.2058511216        9.5670004055
Ga        9.2585020000       10.1264352053        7.9725020000
 N        8.6197100000        9.2058511216        9.5670004055
 N       11.2122100000       10.1264352053        7.9725020000
Ga        6.6660020000        6.4440961090       11.1615004055
Ga        9.2585020000        7.3646801926        9.5670020000
 N        8.6197100000        6.4440961090       11.1615004055
 N       11.2122100000        7.3646801926        9.5670020000
In        6.6660020000        9.2058511216       12.7560004055
In        9.2585020000       10.1264352053       11.1615020000
 N        8.6197100000        9.2058511216       12.7560004055
 N       11.2122100000       10.1264352053       11.1615020000
Ga        6.6660020000        6.4440961090       14.3505004055
In        9.2585020000        7.3646801926       12.7560020000
 N        8.6197100000        6.4440961090       14.3505004055
 N       11.2122100000        7.3646801926       12.7560020000
Ga        6.6660020000        9.2058511216       15.9450004055
Ga        9.2585020000       10.1264352053       14.3505020000
 N        8.6197100000        9.2058511216       15.9450004055
 N       11.2122100000       10.1264352053       14.3505020000
Ga        6.6660020000        6.4440961090       17.5395004055
Ga        9.2585020000        7.3646801926       15.9450020000
 N        8.6197100000        6.4440961090       17.5395004055
 N       11.2122100000        7.3646801926       15.9450020000
Ga        6.6660020000        9.2058511216       19.1340004055
Ga        9.2585020000       10.1264352053       17.5395020000
 N        8.6197100000        9.2058511216       19.1340004055
 N       11.2122100000       10.1264352053       17.5395020000
In        6.6660020000       11.9676061343        1.5945004055
Ga        9.2585020000       12.8881902180        0.0000020000
 N        8.6197100000       11.9676061343        1.5945004055
 N       11.2122100000       12.8881902180        0.0000020000
In        6.6660020000       14.7293611470        3.1890004055
Ga        9.2585020000       15.6499452306        1.5945020000
 N        8.6197100000       14.7293611470        3.1890004055
 N       11.2122100000       15.6499452306        1.5945020000
Ga        6.6660020000       11.9676061343        4.7835004055
Ga        9.2585020000       12.8881902180        3.1890020000
 N        8.6197100000       11.9676061343        4.7835004055
 N       11.2122100000       12.8881902180        3.1890020000
Ga        6.6660020000       14.7293611470        6.3780004055
Ga        9.2585020000       15.6499452306        4.7835020000
 N        8.6197100000       14.7293611470        6.3780004055
 N       11.2122100000       15.6499452306        4.7835020000
Ga        6.6660020000       11.9676061343        7.9725004055
In        9.2585020000       12.8881902180        6.3780020000
 N        8.6197100000       11.9676061343        7.9725004055
 N       11.2122100000       12.8881902180        6.3780020000
Ga        6.6660020000       14.7293611470        9.5670004055
Ga        9.2585020000       15.6499452306        7.9725020000
 N        8.6197100000       14.7293611470        9.5670004055
 N       11.2122100000       15.6499452306        7.9725020000
Ga        6.6660020000       11.9676061343       11.1615004055
Ga        9.2585020000       12.8881902180        9.5670020000
 N        8.6197100000       11.9676061343       11.1615004055
 N       11.2122100000       12.8881902180        9.5670020000
Ga        6.6660020000       14.7293611470       12.7560004055
In        9.2585020000       15.6499452306       11.1615020000
 N        8.6197100000       14.7293611470       12.7560004055
 N       11.2122100000       15.6499452306       11.1615020000
Ga        6.6660020000       11.9676061343       14.3505004055
Ga        9.2585020000       12.8881902180       12.7560020000
 N        8.6197100000       11.9676061343       14.3505004055
 N       11.2122100000       12.8881902180       12.7560020000
Ga        6.6660020000       14.7293611470       15.9450004055
In        9.2585020000       15.6499452306       14.3505020000
 N        8.6197100000       14.7293611470       15.9450004055
 N       11.2122100000       15.6499452306       14.3505020000
Ga        6.6660020000       11.9676061343       17.5395004055
Ga        9.2585020000       12.8881902180       15.9450020000
 N        8.6197100000       11.9676061343       17.5395004055
 N       11.2122100000       12.8881902180       15.9450020000
Ga        6.6660020000       14.7293611470       19.1340004055
Ga        9.2585020000       15.6499452306       17.5395020000
 N        8.6197100000       14.7293611470       19.1340004055
 N       11.2122100000       15.6499452306       17.5395020000
Ga       11.8510020000        0.9205860836        1.5945004055
Ga       14.4435020000        1.8411701673        0.0000020000
 N       13.8047100000        0.9205860836        1.5945004055
 N       16.3972100000        1.8411701673        0.0000020000
Ga       11.8510020000        3.6823410963        3.1890004055
Ga       14.4435020000        4.6029251799        1.5945020000
 N       13.8047100000        3.6823410963        3.1890004055
 N       16.3972100000        4.6029251799        1.5945020000
Ga       11.8510020000        0.9205860836        4.7835004055
Ga       14.4435020000        1.8411701673        3.1890020000
 N       13.8047100000        0.9205860836        4.7835004055
 N       16.3972100000        1.8411701673        3.1890020000
Ga       11.8510020000        3.6823410963        6.3780004055
Ga       14.4435020000        4.6029251799        4.7835020000
 N       13.8047100000        3.6823410963        6.3780004055
 N       16.3972100000        4.6029251799        4.7835020000
Ga       11.8510020000        0.9205860836        7.9725004055
Ga       14.4435020000        1.8411701673        6.3780020000
 N       13.8047100000        0.9205860836        7.9725004055
 N       16.3972100000        1.8411701673        6.3780020000
Ga       11.8510020000        3.6823410963        9.5670004055
Ga       14.4435020000        4.6029251799        7.9725020000
 N       13.8047100000        3.6823410963        9.5670004055
 N       16.3972100000        4.6029251799        7.9725020000
Ga       11.8510020000        0.9205860836       11.1615004055
In       14.4435020000        1.8411701673        9.5670020000
 N       13.8047100000        0.9205860836       11.1615004055
 N       16.3972100000        1.8411701673        9.5670020000
Ga       11.8510020000        3.6823410963       12.7560004055
Ga       14.4435020000        4.6029251799       11.1615020000
 N       13.8047100000        3.6823410963       12.7560004055
 N       16.3972100000        4.6029251799       11.1615020000
Ga       11.8510020000        0.9205860836       14.3505004055
In       14.4435020000        1.8411701673       12.7560020000
 N       13.8047100000        0.9205860836       14.3505004055
 N       16.3972100000        1.8411701673       12.7560020000
Ga       11.8510020000        3.6823410963       15.9450004055
Ga       14.4435020000        4.6029251799       14.3505020000
 N       13.8047100000        3.6823410963       15.9450004055
 N       16.3972100000        4.6029251799       14.3505020000
Ga       11.8510020000        0.9205860836       17.5395004055
Ga       14.4435020000        1.8411701673       15.9450020000
 N       13.8047100000        0.9205860836       17.5395004055
 N       16.3972100000        1.8411701673       15.9450020000
Ga       11.8510020000        3.6823410963       19.1340004055
Ga       14.4435020000        4.6029251799       17.5395020000
 N       13.8047100000        3.6823410963       19.1340004055
 N       16.3972100000        4.6029251799       17.5395020000
In       11.8510020000        6.4440961090        1.5945004055
Ga       14.4435020000        7.3646801926        0.0000020000
 N       13.8047100000        6.4440961090        1.5945004055
 N       16.3972100000        7.3646801926        0.0000020000
Ga       11.8510020000        9.2058511216        3.1890004055
Ga       14.4435020000       10.1264352053        1.5945020000
 N       13.8047100000        9.2058511216        3.1890004055
 N       16.3972100000       10.1264352053        1.5945020000
Ga       11.8510020000        6.4440961090        4.7835004055
Ga       14.4435020000        7.3646801926        3.1890020000
 N       13.8047100000        6.4440961090        4.7835004055
 N       16.3972100000        7.3646801926        3.1890020000
Ga       11.8510020000        9.2058511216        6.3780004055
Ga       14.4435020000       10.1264352053        4.7835020000
 N       13.8047100000        9.2058511216        6.3780004055
 N       16.3972100000       10.1264352053        4.7835020000
Ga       11.8510020000        6.4440961090        7.9725004055
Ga       14.4435020000        7.3646801926        6.3780020000
 N       13.8047100000        6.4440961090        7.9725004055
 N       16.3972100000        7.3646801926        6.3780020000
Ga       11.8510020000        9.2058511216        9.5670004055
Ga       14.4435020000       10.1264352053        7.9725020000
 N       13.8047100000        9.2058511216        9.5670004055
 N       16.3972100000       10.1264352053        7.9725020000
Ga       11.8510020000        6.4440961090       11.1615004055
Ga       14.4435020000        7.3646801926        9.5670020000
 N       13.8047100000        6.4440961090       11.1615004055
 N       16.3972100000        7.3646801926        9.5670020000
Ga       11.8510020000        9.2058511216       12.7560004055
In       14.4435020000       10.1264352053       11.1615020000
 N       13.8047100000        9.2058511216       12.7560004055
 N       16.3972100000       10.1264352053       11.1615020000
Ga       11.8510020000        6.4440961090       14.3505004055
Ga       14.4435020000        7.3646801926       12.7560020000
 N       13.8047100000        6.4440961090       14.3505004055
 N       16.3972100000        7.3646801926       12.7560020000
Ga       11.8510020000        9.2058511216       15.9450004055
Ga       14.4435020000       10.1264352053       14.3505020000
 N       13.8047100000        9.2058511216       15.9450004055
 N       16.3972100000       10.1264352053       14.3505020000
In       11.8510020000        6.4440961090       17.5395004055
Ga       14.4435020000        7.3646801926       15.9450020000
 N       13.8047100000        6.4440961090       17.5395004055
 N       16.3972100000        7.3646801926       15.9450020000
In       11.8510020000        9.2058511216       19.1340004055
Ga       14.4435020000       10.1264352053       17.5395020000
 N       13.8047100000        9.2058511216       19.1340004055
 N       16.3972100000       10.1264352053       17.5395020000
Ga       11.8510020000       11.9676061343        1.5945004055
Ga       14.4435020000       12.8881902180        0.0000020000
 N       13.8047100000       11.9676061343        1.5945004055
 N       16.3972100000       12.8881902180        0.0000020000
Ga       11.8510020000       14.7293611470        3.1890004055
Ga       14.4435020000       15.6499452306        1.5945020000
 N       13.8047100000       14.7293611470        3.1890004055
 N       16.3972100000       15.6499452306        1.5945020000
Ga       11.8510020000       11.9676061343        4.7835004055
Ga       14.4435020000       12.8881902180        3.1890020000
 N       13.8047100000       11.9676061343        4.7835004055
 N       16.3972100000       12.8881902180        3.1890020000
Ga       11.8510020000       14.7293611470        6.3780004055
Ga       14.4435020000       15.6499452306        4.7835020000
 N       13.8047100000       14.7293611470        6.3780004055
 N       16.3972100000       15.6499452306        4.7835020000
Ga       11.8510020000       11.9676061343        7.9725004055
Ga       14.4435020000       12.8881902180        6.3780020000
 N       13.8047100000       11.9676061343        7.9725004055
 N       16.3972100000       12.8881902180        6.3780020000
Ga       11.8510020000       14.7293611470        9.5670004055
Ga       14.4435020000       15.6499452306        7.9725020000
 N       13.8047100000       14.7293611470        9.5670004055
 N       16.3972100000       15.6499452306        7.9725020000
In       11.8510020000       11.9676061343       11.1615004055
Ga       14.4435020000       12.8881902180        9.5670020000
 N       13.8047100000       11.9676061343       11.1615004055
 N       16.3972100000       12.8881902180        9.5670020000
Ga       11.8510020000       14.7293611470       12.7560004055
In       14.4435020000       15.6499452306       11.1615020000
 N       13.8047100000       14.7293611470       12.7560004055
 N       16.3972100000       15.6499452306       11.1615020000
In       11.8510020000       11.9676061343       14.3505004055
Ga       14.4435020000       12.8881902180       12.7560020000
 N       13.8047100000       11.9676061343       14.3505004055
 N       16.3972100000       12.8881902180       12.7560020000
Ga       11.8510020000       14.7293611470       15.9450004055
Ga       14.4435020000       15.6499452306       14.3505020000
 N       13.8047100000       14.7293611470       15.9450004055
 N       16.3972100000       15.6499452306       14.3505020000
In       11.8510020000       11.9676061343       17.5395004055
In       14.4435020000       12.8881902180       15.9450020000
 N       13.8047100000       11.9676061343       17.5395004055
 N       16.3972100000       12.8881902180       15.9450020000
Ga       11.8510020000       14.7293611470       19.1340004055
Ga       14.4435020000       15.6499452306       17.5395020000
 N       13.8047100000       14.7293611470       19.1340004055
 N       16.3972100000       15.6499452306       17.5395020000
Ga       17.0360020000        0.9205860836        1.5945004055
Ga       19.6285020000        1.8411701673        0.0000020000
 N       18.9897100000        0.9205860836        1.5945004055
 N       21.5822100000        1.8411701673        0.0000020000
Ga       17.0360020000        3.6823410963        3.1890004055
Ga       19.6285020000        4.6029251799        1.5945020000
 N       18.9897100000        3.6823410963        3.1890004055
 N       21.5822100000        4.6029251799        1.5945020000
Ga       17.0360020000        0.9205860836        4.7835004055
Ga       19.6285020000        1.8411701673        3.1890020000
 N       18.9897100000        0.9205860836        4.7835004055
 N       21.5822100000        1.8411701673        3.1890020000
Ga       17.0360020000        3.6823410963        6.3780004055
Ga       19.6285020000        4.6029251799        4.7835020000
 N       18.9897100000        3.6823410963        6.3780004055
 N       21.5822100000        4.6029251799        4.7835020000
Ga       17.0360020000        0.9205860836        7.9725004055
Ga       19.6285020000        1.8411701673        6.3780020000
 N       18.9897100000        0.9205860836        7.9725004055
 N       21.5822100000        1.8411701673        6.3780020000
In       17.0360020000        3.6823410963        9.5670004055
In       19.6285020000        4.6029251799        7.9725020000
 N       18.9897100000        3.6823410963        9.5670004055
 N       21.5822100000        4.6029251799        7.9725020000
Ga       17.0360020000        0.9205860836       11.1615004055
Ga       19.6285020000        1.8411701673        9.5670020000
 N       18.9897100000        0.9205860836       11.1615004055
 N       21.5822100000        1.8411701673        9.5670020000
Ga       17.0360020000        3.6823410963       12.7560004055
Ga       19.6285020000        4.6029251799       11.1615020000
 N       18.9897100000        3.6823410963       12.7560004055
 N       21.5822100000        4.6029251799       11.1615020000
Ga       17.0360020000        0.9205860836       14.3505004055
In       19.6285020000        1.8411701673       12.7560020000
 N       18.9897100000        0.9205860836       14.3505004055
 N       21.5822100000        1.8411701673       12.7560020000
Ga       17.0360020000        3.6823410963       15.9450004055
Ga       19.6285020000        4.6029251799       14.3505020000
 N       18.9897100000        3.6823410963       15.9450004055
 N       21.5822100000        4.6029251799       14.3505020000
In       17.0360020000        0.9205860836       17.5395004055
Ga       19.6285020000        1.8411701673       15.9450020000
 N       18.9897100000        0.9205860836       17.5395004055
 N       21.5822100000        1.8411701673       15.9450020000
Ga       17.0360020000        3.6823410963       19.1340004055
Ga       19.6285020000        4.6029251799       17.5395020000
 N       18.9897100000        3.6823410963       19.1340004055
 N       21.5822100000        4.6029251799       17.5395020000
Ga       17.0360020000        6.4440961090        1.5945004055
Ga       19.6285020000        7.3646801926        0.0000020000
 N       18.9897100000        6.4440961090        1.5945004055
 N       21.5822100000        7.3646801926        0.0000020000
Ga       17.0360020000        9.2058511216        3.1890004055
In       19.6285020000       10.1264352053        1.5945020000
 N       18.9897100000        9.2058511216        3.1890004055
 N       21.5822100000       10.1264352053        1.5945020000
Ga       17.0360020000        6.4440961090        4.7835004055
Ga       19.6285020000        7.3646801926        3.1890020000
 N       18.9897100000        6.4440961090        4.7835004055
 N       21.5822100000        7.3646801926        3.1890020000
Ga       17.0360020000        9.2058511216        6.3780004055
In       19.6285020000       10.1264352053        4.7835020000
 N       18.9897100000        9.2058511216        6.3780004055
 N       21.5822100000       10.1264352053        4.7835020000
Ga       17.0360020000        6.4440961090        7.9725004055
Ga       19.6285020000        7.3646801926        6.3780020000
 N       18.9897100000        6.4440961090        7.9725004055
 N       21.5822100000        7.3646801926        6.3780020000
Ga       17.0360020000        9.2058511216        9.5670004055
Ga       19.6285020000       10.1264352053        7.9725020000
 N       18.9897100000        9.2058511216        9.5670004055
 N       21.5822100000       10.1264352053        7.9725020000
Ga       17.0360020000        6.4440961090       11.1615004055
Ga       19.6285020000        7.3646801926        9.5670020000
 N       18.9897100000        6.4440961090       11.1615004055
 N       21.5822100000        7.3646801926        9.5670020000
Ga       17.0360020000        9.2058511216       12.7560004055
In       19.6285020000       10.1264352053       11.1615020000
 N       18.9897100000        9.2058511216       12.7560004055
 N       21.5822100000       10.1264352053       11.1615020000
In       17.0360020000        6.4440961090       14.3505004055
Ga       19.6285020000        7.3646801926       12.7560020000
 N       18.9897100000        6.4440961090       14.3505004055
 N       21.5822100000        7.3646801926       12.7560020000
In       17.0360020000        9.2058511216       15.9450004055
Ga       19.6285020000       10.1264352053       14.3505020000
 N       18.9897100000        9.2058511216       15.9450004055
 N       21.5822100000       10.1264352053       14.3505020000
Ga       17.0360020000        6.4440961090       17.5395004055
Ga       19.6285020000        7.3646801926       15.9450020000
 N       18.9897100000        6.4440961090       17.5395004055
 N       21.5822100000        7.3646801926       15.9450020000
In       17.0360020000        9.2058511216       19.1340004055
Ga       19.6285020000       10.1264352053       17.5395020000
 N       18.9897100000        9.2058511216       19.1340004055
 N       21.5822100000       10.1264352053       17.5395020000
Ga       17.0360020000       11.9676061343        1.5945004055
Ga       19.6285020000       12.8881902180        0.0000020000
 N       18.9897100000       11.9676061343        1.5945004055
 N       21.5822100000       12.8881902180        0.0000020000
Ga       17.0360020000       14.7293611470        3.1890004055
Ga       19.6285020000       15.6499452306        1.5945020000
 N       18.9897100000       14.7293611470        3.1890004055
 N       21.5822100000       15.6499452306        1.5945020000
Ga       17.0360020000       11.9676061343        4.7835004055
Ga       19.6285020000       12.8881902180        3.1890020000
 N       18.9897100000       11.9676061343        4.7835004055
 N       21.5822100000       12.8881902180        3.1890020000
Ga       17.0360020000       14.7293611470        6.3780004055
Ga       19.6285020000       15.6499452306        4.7835020000
 N       18.9897100000       14.7293611470        6.3780004055
 N       21.5822100000       15.6499452306        4.7835020000
Ga       17.0360020000       11.9676061343        7.9725004055
Ga       19.6285020000       12.8881902180        6.3780020000
 N       18.9897100000       11.9676061343        7.9725004055
 N       21.5822100000       12.8881902180        6.3780020000
Ga       17.0360020000       14.7293611470        9.5670004055
Ga       19.6285020000       15.6499452306        7.9725020000
 N       18.9897100000       14.7293611470        9.5670004055
 N       21.5822100000       15.6499452306        7.9725020000
Ga       17.0360020000       11.9676061343       11.1615004055
Ga       19.6285020000       12.8881902180        9.5670020000
 N       18.9897100000       11.9676061343       11.1615004055
 N       21.5822100000       12.8881902180        9.5670020000
In       17.0360020000       14.7293611470       12.7560004055
In       19.6285020000       15.6499452306       11.1615020000
 N       18.9897100000       14.7293611470       12.7560004055
 N       21.5822100000       15.6499452306       11.1615020000
Ga       17.0360020000       11.9676061343       14.3505004055
In       19.6285020000       12.8881902180       12.7560020000
 N       18.9897100000       11.9676061343       14.3505004055
 N       21.5822100000       12.8881902180       12.7560020000
In       17.0360020000       14.7293611470       15.9450004055
Ga       19.6285020000       15.6499452306       14.3505020000
 N       18.9897100000       14.7293611470       15.9450004055
 N       21.5822100000       15.6499452306       14.3505020000
Ga       17.0360020000       11.9676061343       17.5395004055
In       19.6285020000       12.8881902180       15.9450020000
 N       18.9897100000       11.9676061343       17.5395004055
 N       21.5822100000       12.8881902180       15.9450020000
Ga       17.0360020000       14.7293611470       19.1340004055
Ga       19.6285020000       15.6499452306       17.5395020000
 N       18.9897100000       14.7293611470       19.1340004055
 N       21.5822100000       15.6499452306       17.5395020000
Ga       22.2210020000        0.9205860836        1.5945004055
Ga       24.8135020000        1.8411701673        0.0000020000
 N       24.1747100000        0.9205860836        1.5945004055
 N       26.7672100000        1.8411701673        0.0000020000
Ga       22.2210020000        3.6823410963        3.1890004055
Ga       24.8135020000        4.6029251799        1.5945020000
 N       24.1747100000        3.6823410963        3.1890004055
 N       26.7672100000        4.6029251799        1.5945020000
Ga       22.2210020000        0.9205860836        4.7835004055
Ga       24.8135020000        1.8411701673        3.1890020000
 N       24.1747100000        0.9205860836        4.7835004055
 N       26.7672100000        1.8411701673        3.1890020000
In       22.2210020000        3.6823410963        6.3780004055
Ga       24.8135020000        4.6029251799        4.7835020000
 N       24.1747100000        3.6823410963        6.3780004055
 N       26.7672100000        4.6029251799        4.7835020000
Ga       22.2210020000        0.9205860836        7.9725004055
In       24.8135020000        1.8411701673        6.3780020000
 N       24.1747100000        0.9205860836        7.9725004055
 N       26.7672100000        1.8411701673        6.3780020000
Ga       22.2210020000        3.6823410963        9.5670004055
Ga       24.8135020000        4.6029251799        7.9725020000
 N       24.1747100000        3.6823410963        9.5670004055
 N       26.7672100000        4.6029251799        7.9725020000
In       22.2210020000        0.9205860836       11.1615004055
In       24.8135020000        1.8411701673        9.5670020000
 N       24.1747100000        0.9205860836       11.1615004055
 N       26.7672100000        1.8411701673        9.5670020000
In       22.2210020000        3.6823410963       12.7560004055
In       24.8135020000        4.6029251799       11.1615020000
 N       24.1747100000        3.6823410963       12.7560004055
 N       26.7672100000        4.6029251799       11.1615020000
Ga       22.2210020000        0.9205860836       14.3505004055
Ga       24.8135020000        1.8411701673       12.7560020000
 N       24.1747100000        0.9205860836       14.3505004055
 N       26.7672100000        1.8411701673       12.7560020000
In       22.2210020000        3.6823410963       15.9450004055
Ga       24.8135020000        4.6029251799       14.3505020000
 N       24.1747100000        3.6823410963       15.9450004055
 N       26.7672100000        4.6029251799       14.3505020000
In       22.2210020000        0.9205860836       17.5395004055
Ga       24.8135020000        1.8411701673       15.9450020000
 N       24.1747100000        0.9205860836       17.5395004055
 N       26.7672100000        1.8411701673       15.9450020000
In       22.2210020000        3.6823410963       19.1340004055
Ga       24.8135020000        4.6029251799       17.5395020000
 N       24.1747100000        3.6823410963       19.1340004055
 N       26.7672100000        4.6029251799       17.5395020000
In       22.2210020000        6.4440961090        1.5945004055
Ga       24.8135020000        7.3646801926        0.0000020000
 N       24.1747100000        6.4440961090        1.5945004055
 N       26.7672100000        7.3646801926        0.0000020000
In       22.2210020000        9.2058511216        3.1890004055
In       24.8135020000       10.1264352053        1.5945020000
 N       24.1747100000        9.2058511216        3.1890004055
 N       26.7672100000       10.1264352053        1.5945020000
In       22.2210020000        6.4440961090        4.7835004055
In       24.8135020000        7.3646801926        3.1890020000
 N       24.1747100000        6.4440961090        4.7835004055
 N       26.7672100000        7.3646801926        3.1890020000
In       22.2210020000        9.2058511216        6.3780004055
Ga       24.8135020000       10.1264352053        4.7835020000
 N       24.1747100000        9.2058511216        6.3780004055
 N       26.7672100000       10.1264352053        4.7835020000
Ga       22.2210020000        6.4440961090        7.9725004055
In       24.8135020000        7.3646801926        6.3780020000
 N       24.1747100000        6.4440961090        7.9725004055
 N       26.7672100000        7.3646801926        6.3780020000
Ga       22.2210020000        9.2058511216        9.5670004055
Ga       24.8135020000       10.1264352053        7.9725020000
 N       24.1747100000        9.2058511216        9.5670004055
 N       26.7672100000       10.1264352053        7.9725020000
Ga       22.2210020000        6.4440961090       11.1615004055
In       24.8135020000        7.3646801926        9.5670020000
 N       24.1747100000        6.4440961090       11.1615004055
 N       26.7672100000        7.3646801926        9.5670020000
In       22.2210020000        9.2058511216       12.7560004055
In       24.8135020000       10.1264352053       11.1615020000
 N       24.1747100000        9.2058511216       12.7560004055
 N       26.7672100000       10.1264352053       11.1615020000
Ga       22.2210020000        6.4440961090       14.3505004055
Ga       24.8135020000        7.3646801926       12.7560020000
 N       24.1747100000        6.4440961090       14.3505004055
 N       26.7672100000        7.3646801926       12.7560020000
Ga       22.2210020000        9.2058511216       15.9450004055
Ga       24.8135020000       10.1264352053       14.3505020000
 N       24.1747100000        9.2058511216       15.9450004055
 N       26.7672100000       10.1264352053       14.3505020000
In       22.2210020000        6.4440961090       17.5395004055
Ga       24.8135020000        7.3646801926       15.9450020000
 N       24.1747100000        6.4440961090       17.5395004055
 N       26.7672100000        7.3646801926       15.9450020000
Ga       22.2210020000        9.2058511216       19.1340004055
Ga       24.8135020000       10.1264352053       17.5395020000
 N       24.1747100000        9.2058511216       19.1340004055
 N       26.7672100000       10.1264352053       17.5395020000
Ga       22.2210020000       11.9676061343        1.5945004055
Ga       24.8135020000       12.8881902180        0.0000020000
 N       24.1747100000       11.9676061343        1.5945004055
 N       26.7672100000       12.8881902180        0.0000020000
Ga       22.2210020000       14.7293611470        3.1890004055
Ga       24.8135020000       15.6499452306        1.5945020000
 N       24.1747100000       14.7293611470        3.1890004055
 N       26.7672100000       15.6499452306        1.5945020000
In       22.2210020000       11.9676061343        4.7835004055
Ga       24.8135020000       12.8881902180        3.1890020000
 N       24.1747100000       11.9676061343        4.7835004055
 N       26.7672100000       12.8881902180        3.1890020000
Ga       22.2210020000       14.7293611470        6.3780004055
Ga       24.8135020000       15.6499452306        4.7835020000
 N       24.1747100000       14.7293611470        6.3780004055
 N       26.7672100000       15.6499452306        4.7835020000
Ga       22.2210020000       11.9676061343        7.9725004055
Ga       24.8135020000       12.8881902180        6.3780020000
 N       24.1747100000       11.9676061343        7.9725004055
 N       26.7672100000       12.8881902180        6.3780020000
In       22.2210020000       14.7293611470        9.5670004055
Ga       24.8135020000       15.6499452306        7.9725020000
 N       24.1747100000       14.7293611470        9.5670004055
 N       26.7672100000       15.6499452306        7.9725020000
Ga       22.2210020000       11.9676061343       11.1615004055
Ga       24.8135020000       12.8881902180        9.5670020000
 N       24.1747100000       11.9676061343       11.1615004055
 N       26.7672100000       12.8881902180        9.5670020000
Ga       22.2210020000       14.7293611470       12.7560004055
In       24.8135020000       15.6499452306       11.1615020000
 N       24.1747100000       14.7293611470       12.7560004055
 N       26.7672100000       15.6499452306       11.1615020000
Ga       22.2210020000       11.9676061343       14.3505004055
Ga       24.8135020000       12.8881902180       12.7560020000
 N       24.1747100000       11.9676061343       14.3505004055
 N       26.7672100000       12.8881902180       12.7560020000
Ga       22.2210020000       14.7293611470       15.9450004055
Ga       24.8135020000       15.6499452306       14.3505020000
 N       24.1747100000       14.7293611470       15.9450004055
 N       26.7672100000       15.6499452306       14.3505020000
Ga       22.2210020000       11.9676061343       17.5395004055
Ga       24.8135020000       12.8881902180       15.9450020000
 N       24.1747100000       11.9676061343       17.5395004055
 N       26.7672100000       12.8881902180       15.9450020000
In       22.2210020000       14.7293611470       19.1340004055
Ga       24.8135020000       15.6499452306       17.5395020000
 N       24.1747100000       14.7293611470       19.1340004055
 N       26.7672100000       15.6499452306       17.5395020000
Ga       27.4060020000        0.9205860836        1.5945004055
Ga       29.9985020000        1.8411701673        0.0000020000
 N       29.3597100000        0.9205860836        1.5945004055
 N       31.9522100000        1.8411701673        0.0000020000
Ga       27.4060020000        3.6823410963        3.1890004055
Ga       29.9985020000        4.6029251799        1.5945020000
 N       29.3597100000        3.6823410963        3.1890004055
 N       31.9522100000        4.6029251799        1.5945020000
In       27.4060020000        0.9205860836        4.7835004055
Ga       29.9985020000        1.8411701673        3.1890020000
 N       29.3597100000        0.9205860836        4.7835004055
 N       31.9522100000        1.8411701673        3.1890020000
Ga       27.4060020000        3.6823410963        6.3780004055
Ga       29.9985020000        4.6029251799        4.7835020000
 N       29.3597100000        3.6823410963        6.3780004055
 N       31.9522100000        4.6029251799        4.7835020000
Ga       27.4060020000        0.9205860836        7.9725004055
Ga       29.9985020000        1.8411701673        6.3780020000
 N       29.3597100000        0.9205860836        7.9725004055
 N       31.9522100000        1.8411701673        6.3780020000
In       27.4060020000        3.6823410963        9.5670004055
Ga       29.9985020000        4.6029251799        7.9725020000
 N       29.3597100000        3.6823410963        9.5670004055
 N       31.9522100000        4.6029251799        7.9725020000
Ga       27.4060020000        0.9205860836       11.1615004055
Ga       29.9985020000        1.8411701673        9.5670020000
 N       29.3597100000        0.9205860836       11.1615004055
 N       31.9522100000        1.8411701673        9.5670020000
Ga       27.4060020000        3.6823410963       12.7560004055
In       29.9985020000        4.6029251799       11.1615020000
 N       29.3597100000        3.6823410963       12.7560004055
 N       31.9522100000        4.6029251799       11.1615020000
Ga       27.4060020000        0.9205860836       14.3505004055
In       29.9985020000        1.8411701673       12.7560020000
 N       29.3597100000        0.9205860836       14.3505004055
 N       31.9522100000        1.8411701673       12.7560020000
In       27.4060020000        3.6823410963       15.9450004055
Ga       29.9985020000        4.6029251799       14.3505020000
 N       29.3597100000        3.6823410963       15.9450004055
 N       31.9522100000        4.6029251799       14.3505020000
Ga       27.4060020000        0.9205860836       17.5395004055
Ga       29.9985020000        1.8411701673       15.9450020000
 N       29.3597100000        0.9205860836       17.5395004055
 N       31.9522100000        1.8411701673       15.9450020000
Ga       27.4060020000        3.6823410963       19.1340004055
Ga       29.9985020000        4.6029251799       17.5395020000
 N       29.3597100000        3.6823410963       19.1340004055
 N       31.9522100000        4.6029251799       17.5395020000
Ga       27.4060020000        6.4440961090        1.5945004055
Ga       29.9985020000        7.3646801926        0.0000020000
 N       29.3597100000        6.4440961090        1.5945004055
 N       31.9522100000        7.3646801926        0.0000020000
Ga       27.4060020000        9.2058511216        3.1890004055
Ga       29.9985020000       10.1264352053        1.5945020000
 N       29.3597100000        9.2058511216        3.1890004055
 N       31.9522100000       10.1264352053        1.5945020000
Ga       27.4060020000        6.4440961090        4.7835004055
In       29.9985020000        7.3646801926        3.1890020000
 N       29.3597100000        6.4440961090        4.7835004055
 N       31.9522100000        7.3646801926        3.1890020000
In       27.4060020000        9.2058511216        6.3780004055
Ga       29.9985020000       10.1264352053        4.7835020000
 N       29.3597100000        9.2058511216        6.3780004055
 N       31.9522100000       10.1264352053        4.7835020000
Ga       27.4060020000        6.4440961090        7.9725004055
Ga       29.9985020000        7.3646801926        6.3780020000
 N       29.3597100000        6.4440961090        7.9725004055
 N       31.9522100000        7.3646801926        6.3780020000
Ga       27.4060020000        9.2058511216        9.5670004055
In       29.9985020000       10.1264352053        7.9725020000
 N       29.3597100000        9.2058511216        9.5670004055
 N       31.9522100000       10.1264352053        7.9725020000
In       27.4060020000        6.4440961090       11.1615004055
Ga       29.9985020000        7.3646801926        9.5670020000
 N       29.3597100000        6.4440961090       11.1615004055
 N       31.9522100000        7.3646801926        9.5670020000
Ga       27.4060020000        9.2058511216       12.7560004055
In       29.9985020000       10.1264352053       11.1615020000
 N       29.3597100000        9.2058511216       12.7560004055
 N       31.9522100000       10.1264352053       11.1615020000
Ga       27.4060020000        6.4440961090       14.3505004055
Ga       29.9985020000        7.3646801926       12.7560020000
 N       29.3597100000        6.4440961090       14.3505004055
 N       31.9522100000        7.3646801926       12.7560020000
Ga       27.4060020000        9.2058511216       15.9450004055
In       29.9985020000       10.1264352053       14.3505020000
 N       29.3597100000        9.2058511216       15.9450004055
 N       31.9522100000       10.1264352053       14.3505020000
Ga       27.4060020000        6.4440961090       17.5395004055
Ga       29.9985020000        7.3646801926       15.9450020000
 N       29.3597100000        6.4440961090       17.5395004055
 N       31.9522100000        7.3646801926       15.9450020000
Ga       27.4060020000        9.2058511216       19.1340004055
In       29.9985020000       10.1264352053       17.5395020000
 N       29.3597100000        9.2058511216       19.1340004055
 N       31.9522100000       10.1264352053       17.5395020000
In       27.4060020000       11.9676061343        1.5945004055
Ga       29.9985020000       12.8881902180        0.0000020000
 N       29.3597100000       11.9676061343        1.5945004055
 N       31.9522100000       12.8881902180        0.0000020000
Ga       27.4060020000       14.7293611470        3.1890004055
In       29.9985020000       15.6499452306        1.5945020000
 N       29.3597100000       14.7293611470        3.1890004055
 N       31.9522100000       15.6499452306        1.5945020000
Ga       27.4060020000       11.9676061343        4.7835004055
Ga       29.9985020000       12.8881902180        3.1890020000
 N       29.3597100000       11.9676061343        4.7835004055
 N       31.9522100000       12.8881902180        3.1890020000
Ga       27.4060020000       14.7293611470        6.3780004055
Ga       29.9985020000       15.6499452306        4.7835020000
 N       29.3597100000       14.7293611470        6.3780004055
 N       31.9522100000       15.6499452306        4.7835020000
Ga       27.4060020000       11.9676061343        7.9725004055
Ga       29.9985020000       12.8881902180        6.3780020000
 N       29.3597100000       11.9676061343        7.9725004055
 N       31.9522100000       12.8881902180        6.3780020000
In       27.4060020000       14.7293611470        9.5670004055
In       29.9985020000       15.6499452306        7.9725020000
 N       29.3597100000       14.7293611470        9.5670004055
 N       31.9522100000       15.6499452306        7.9725020000
In       27.4060020000       11.9676061343       11.1615004055
Ga       29.9985020000       12.8881902180        9.5670020000
 N       29.3597100000       11.9676061343       11.1615004055
 N       31.9522100000       12.8881902180        9.5670020000
Ga       27.4060020000       14.7293611470       12.7560004055
Ga       29.9985020000       15.6499452306       11.1615020000
 N       29.3597100000       14.7293611470       12.7560004055
 N       31.9522100000       15.6499452306       11.1615020000
Ga       27.4060020000       11.9676061343       14.3505004055
In       29.9985020000       12.8881902180       12.7560020000
 N       29.3597100000       11.9676061343       14.3505004055
 N       31.9522100000       12.8881902180       12.7560020000
Ga       27.4060020000       14.7293611470       15.9450004055
Ga       29.9985020000       15.6499452306       14.3505020000
 N       29.3597100000       14.7293611470       15.9450004055
 N       31.9522100000       15.6499452306       14.3505020000
In       27.4060020000       11.9676061343       17.5395004055
In       29.9985020000       12.8881902180       15.9450020000
 N       29.3597100000       11.9676061343       17.5395004055
 N       31.9522100000       12.8881902180       15.9450020000
Ga       27.4060020000       14.7293611470       19.1340004055
In       29.9985020000       15.6499452306       17.5395020000
 N       29.3597100000       14.7293611470       19.1340004055
 N       31.9522100000       15.6499452306       17.5395020000
Ga       32.5910020000        0.9205860836        1.5945004055
Ga       35.1835020000        1.8411701673        0.0000020000
 N       34.5447100000        0.9205860836        1.5945004055
 N       37.1372100000        1.8411701673        0.0000020000
Ga       32.5910020000        3.6823410963        3.1890004055
Ga       35.1835020000        4.6029251799        1.5945020000
 N       34.5447100000        3.6823410963        3.1890004055
 N       37.1372100000        4.6029251799        1.5945020000
Ga       32.5910020000        0.9205860836        4.7835004055
Ga       35.1835020000        1.8411701673        3.1890020000
 N       34.5447100000        0.9205860836        4.7835004055
 N       37.1372100000        1.8411701673        3.1890020000
Ga       32.5910020000        3.6823410963        6.3780004055
Ga       35.1835020000        4.6029251799        4.7835020000
 N       34.5447100000        3.6823410963        6.3780004055
 N       37.1372100000        4.6029251799        4.7835020000
Ga       32.5910020000        0.9205860836        7.9725004055
Ga       35.1835020000        1.8411701673        6.3780020000
 N       34.5447100000        0.9205860836        7.9725004055
 N       37.1372100000        1.8411701673        6.3780020000
Ga       32.5910020000        3.6823410963        9.5670004055
Ga       35.1835020000        4.6029251799        7.9725020000
 N       34.5447100000        3.6823410963        9.5670004055
 N       37.1372100000        4.6029251799        7.9725020000
Ga       32.5910020000        0.9205860836       11.1615004055
Ga       35.1835020000        1.8411701673        9.5670020000
 N       34.5447100000        0.9205860836       11.1615004055
 N       37.1372100000        1.8411701673        9.5670020000
Ga       32.5910020000        3.6823410963       12.7560004055
Ga       35.1835020000        4.6029251799       11.1615020000
 N       34.5447100000        3.6823410963       12.7560004055
 N       37.1372100000        4.6029251799       11.1615020000
Ga       32.5910020000        0.9205860836       14.3505004055
Ga       35.1835020000        1.8411701673       12.7560020000
 N       34.5447100000        0.9205860836       14.3505004055
 N       37.1372100000        1.8411701673       12.7560020000
Ga       32.5910020000        3.6823410963       15.9450004055
Ga       35.1835020000        4.6029251799       14.3505020000
 N       34.5447100000        3.6823410963       15.9450004055
 N       37.1372100000        4.6029251799       14.3505020000
Ga       32.5910020000        0.9205860836       17.5395004055
Ga       35.1835020000        1.8411701673       15.9450020000
 N       34.5447100000        0.9205860836       17.5395004055
 N       37.1372100000        1.8411701673       15.9450020000
Ga       32.5910020000        3.6823410963       19.1340004055
Ga       35.1835020000        4.6029251799       17.5395020000
 N       34.5447100000        3.6823410963       19.1340004055
 N       37.1372100000        4.6029251799       17.5395020000
Ga       32.5910020000        6.4440961090        1.5945004055
Ga       35.1835020000        7.3646801926        0.0000020000
 N       34.5447100000        6.4440961090        1.5945004055
 N       37.1372100000        7.3646801926        0.0000020000
Ga       32.5910020000        9.2058511216        3.1890004055
Ga       35.1835020000       10.1264352053        1.5945020000
 N       34.5447100000        9.2058511216        3.1890004055
 N       37.1372100000       10.1264352053        1.5945020000
Ga       32.5910020000        6.4440961090        4.7835004055
Ga       35.1835020000        7.3646801926        3.1890020000
 N       34.5447100000        6.4440961090        4.7835004055
 N       37.1372100000        7.3646801926        3.1890020000
Ga       32.5910020000        9.2058511216        6.3780004055
Ga       35.1835020000       10.1264352053        4.7835020000
 N       34.5447100000        9.2058511216        6.3780004055
 N       37.1372100000       10.1264352053        4.7835020000
Ga       32.5910020000        6.4440961090        7.9725004055
Ga       35.1835020000        7.3646801926        6.3780020000
 N       34.5447100000        6.4440961090        7.9725004055
 N       37.1372100000        7.3646801926        6.3780020000
Ga       32.5910020000        9.2058511216        9.5670004055
Ga       35.1835020000       10.1264352053        7.9725020000
 N       34.5447100000        9.2058511216        9.5670004055
 N       37.1372100000       10.1264352053        7.9725020000
Ga       32.5910020000        6.4440961090       11.1615004055
Ga       35.1835020000        7.3646801926        9.5670020000
 N       34.5447100000        6.4440961090       11.1615004055
 N       37.1372100000        7.3646801926        9.5670020000
Ga       32.5910020000        9.2058511216       12.7560004055
Ga       35.1835020000       10.1264352053       11.1615020000
 N       34.5447100000        9.2058511216       12.7560004055
 N       37.1372100000       10.1264352053       11.1615020000
Ga       32.5910020000        6.4440961090       14.3505004055
Ga       35.1835020000        7.3646801926       12.7560020000
 N       34.5447100000        6.4440961090       14.3505004055
 N       37.1372100000        7.3646801926       12.7560020000
Ga       32.5910020000        9.2058511216       15.9450004055
Ga       35.1835020000       10.1264352053       14.3505020000
 N       34.5447100000        9.2058511216       15.9450004055
 N       37.1372100000       10.1264352053       14.3505020000
Ga       32.5910020000        6.4440961090       17.5395004055
Ga       35.1835020000        7.3646801926       15.9450020000
 N       34.5447100000        6.4440961090       17.5395004055
 N       37.1372100000        7.3646801926       15.9450020000
Ga       32.5910020000        9.2058511216       19.1340004055
Ga       35.1835020000       10.1264352053       17.5395020000
 N       34.5447100000        9.2058511216       19.1340004055
 N       37.1372100000       10.1264352053       17.5395020000
Ga       32.5910020000       11.9676061343        1.5945004055
Ga       35.1835020000       12.8881902180        0.0000020000
 N       34.5447100000       11.9676061343        1.5945004055
 N       37.1372100000       12.8881902180        0.0000020000
Ga       32.5910020000       14.7293611470        3.1890004055
Ga       35.1835020000       15.6499452306        1.5945020000
 N       34.5447100000       14.7293611470        3.1890004055
 N       37.1372100000       15.6499452306        1.5945020000
Ga       32.5910020000       11.9676061343        4.7835004055
Ga       35.1835020000       12.8881902180        3.1890020000
 N       34.5447100000       11.9676061343        4.7835004055
 N       37.1372100000       12.8881902180        3.1890020000
Ga       32.5910020000       14.7293611470        6.3780004055
Ga       35.1835020000       15.6499452306        4.7835020000
 N       34.5447100000       14.7293611470        6.3780004055
 N       37.1372100000       15.6499452306        4.7835020000
Ga       32.5910020000       11.9676061343        7.9725004055
Ga       35.1835020000       12.8881902180        6.3780020000
 N       34.5447100000       11.9676061343        7.9725004055
 N       37.1372100000       12.8881902180        6.3780020000
Ga       32.5910020000       14.7293611470        9.5670004055
Ga       35.1835020000       15.6499452306        7.9725020000
 N       34.5447100000       14.7293611470        9.5670004055
 N       37.1372100000       15.6499452306        7.9725020000
Ga       32.5910020000       11.9676061343       11.1615004055
Ga       35.1835020000       12.8881902180        9.5670020000
 N       34.5447100000       11.9676061343       11.1615004055
 N       37.1372100000       12.8881902180        9.5670020000
Ga       32.5910020000       14.7293611470       12.7560004055
Ga       35.1835020000       15.6499452306       11.1615020000
 N       34.5447100000       14.7293611470       12.7560004055
 N       37.1372100000       15.6499452306       11.1615020000
Ga       32.5910020000       11.9676061343       14.3505004055
Ga       35.1835020000       12.8881902180       12.7560020000
 N       34.5447100000       11.9676061343       14.3505004055
 N       37.1372100000       12.8881902180       12.7560020000
Ga       32.5910020000       14.7293611470       15.9450004055
Ga       35.1835020000       15.6499452306       14.3505020000
 N       34.5447100000       14.7293611470       15.9450004055
 N       37.1372100000       15.6499452306       14.3505020000
Ga       32.5910020000       11.9676061343       17.5395004055
Ga       35.1835020000       12.8881902180       15.9450020000
 N       34.5447100000       11.9676061343       17.5395004055
 N       37.1372100000       12.8881902180       15.9450020000
Ga       32.5910020000       14.7293611470       19.1340004055
Ga       35.1835020000       15.6499452306       17.5395020000
 N       34.5447100000       14.7293611470       19.1340004055
 N       37.1372100000       15.6499452306       17.5395020000
Ga       37.7760020000        0.9205860836        1.5945004055
Ga       40.3685020000        1.8411701673        0.0000020000
 N       39.7297100000        0.9205860836        1.5945004055
 N       42.3222100000        1.8411701673        0.0000020000
Ga       37.7760020000        3.6823410963        3.1890004055
Ga       40.3685020000        4.6029251799        1.5945020000
 N       39.7297100000        3.6823410963        3.1890004055
 N       42.3222100000        4.6029251799        1.5945020000
Ga       37.7760020000        0.9205860836        4.7835004055
Ga       40.3685020000        1.8411701673        3.1890020000
 N       39.7297100000        0.9205860836        4.7835004055
 N       42.3222100000        1.8411701673        3.1890020000
Ga       37.7760020000        3.6823410963        6.3780004055
Ga       40.3685020000        4.6029251799        4.7835020000
 N       39.7297100000        3.6823410963        6.3780004055
 N       42.3222100000        4.6029251799        4.7835020000
Ga       37.7760020000        0.9205860836        7.9725004055
Ga       40.3685020000        1.8411701673        6.3780020000
 N       39.7297100000        0.9205860836        7.9725004055
 N       42.3222100000        1.8411701673        6.3780020000
Ga       37.7760020000        3.6823410963        9.5670004055
Ga       40.3685020000        4.6029251799        7.9725020000
 N       39.7297100000        3.6823410963        9.5670004055
 N       42.3222100000        4.6029251799        7.9725020000
Ga       37.7760020000        0.9205860836       11.1615004055
Ga       40.3685020000        1.8411701673        9.5670020000
 N       39.7297100000        0.9205860836       11.1615004055
 N       42.3222100000        1.8411701673        9.5670020000
Ga       37.7760020000        3.6823410963       12.7560004055
Ga       40.3685020000        4.6029251799       11.1615020000
 N       39.7297100000        3.6823410963       12.7560004055
 N       42.3222100000        4.6029251799       11.1615020000
Ga       37.7760020000        0.9205860836       14.3505004055
Ga       40.3685020000        1.8411701673       12.7560020000
 N       39.7297100000        0.9205860836       14.3505004055
 N       42.3222100000        1.8411701673       12.7560020000
Ga       37.7760020000        3.6823410963       15.9450004055
Ga       40.3685020000        4.6029251799       14.3505020000
 N       39.7297100000        3.6823410963       15.9450004055
 N       42.3222100000        4.6029251799       14.3505020000
Ga       37.7760020000        0.9205860836       17.5395004055
Ga       40.3685020000        1.8411701673       15.9450020000
 N       39.7297100000        0.9205860836       17.5395004055
 N       42.3222100000        1.8411701673       15.9450020000
Ga       37.7760020000        3.6823410963       19.1340004055
Ga       40.3685020000        4.6029251799       17.5395020000
 N       39.7297100000        3.6823410963       19.1340004055
 N       42.3222100000        4.6029251799       17.5395020000
Ga       37.7760020000        6.4440961090        1.5945004055
Ga       40.3685020000        7.3646801926        0.0000020000
 N       39.7297100000        6.4440961090        1.5945004055
 N       42.3222100000        7.3646801926        0.0000020000
Ga       37.7760020000        9.2058511216        3.1890004055
Ga       40.3685020000       10.1264352053        1.5945020000
 N       39.7297100000        9.2058511216        3.1890004055
 N       42.3222100000       10.1264352053        1.5945020000
Ga       37.7760020000        6.4440961090        4.7835004055
Ga       40.3685020000        7.3646801926        3.1890020000
 N       39.7297100000        6.4440961090        4.7835004055
 N       42.3222100000        7.3646801926        3.1890020000
Ga       37.7760020000        9.2058511216        6.3780004055
Ga       40.3685020000       10.1264352053        4.7835020000
 N       39.7297100000        9.2058511216        6.3780004055
 N       42.3222100000       10.1264352053        4.7835020000
Ga       37.7760020000        6.4440961090        7.9725004055
Ga       40.3685020000        7.3646801926        6.3780020000
 N       39.7297100000        6.4440961090        7.9725004055
 N       42.3222100000        7.3646801926        6.3780020000
Ga       37.7760020000        9.2058511216        9.5670004055
Ga       40.3685020000       10.1264352053        7.9725020000
 N       39.7297100000        9.2058511216        9.5670004055
 N       42.3222100000       10.1264352053        7.9725020000
Ga       37.7760020000        6.4440961090       11.1615004055
Ga       40.3685020000        7.3646801926        9.5670020000
 N       39.7297100000        6.4440961090       11.1615004055
 N       42.3222100000        7.3646801926        9.5670020000
Ga       37.7760020000        9.2058511216       12.7560004055
Ga       40.3685020000       10.1264352053       11.1615020000
 N       39.7297100000        9.2058511216       12.7560004055
 N       42.3222100000       10.1264352053       11.1615020000
Ga       37.7760020000        6.4440961090       14.3505004055
Ga       40.3685020000        7.3646801926       12.7560020000
 N       39.7297100000        6.4440961090       14.3505004055
 N       42.3222100000        7.3646801926       12.7560020000
Ga       37.7760020000        9.2058511216       15.9450004055
Ga       40.3685020000       10.1264352053       14.3505020000
 N       39.7297100000        9.2058511216       15.9450004055
 N       42.3222100000       10.1264352053       14.3505020000
Ga       37.7760020000        6.4440961090       17.5395004055
Ga       40.3685020000        7.3646801926       15.9450020000
 N       39.7297100000        6.4440961090       17.5395004055
 N       42.3222100000        7.3646801926       15.9450020000
Ga       37.7760020000        9.2058511216       19.1340004055
Ga       40.3685020000       10.1264352053       17.5395020000
 N       39.7297100000        9.2058511216       19.1340004055
 N       42.3222100000       10.1264352053       17.5395020000
Ga       37.7760020000       11.9676061343        1.5945004055
Ga       40.3685020000       12.8881902180        0.0000020000
 N       39.7297100000       11.9676061343        1.5945004055
 N       42.3222100000       12.8881902180        0.0000020000
Ga       37.7760020000       14.7293611470        3.1890004055
Ga       40.3685020000       15.6499452306        1.5945020000
 N       39.7297100000       14.7293611470        3.1890004055
 N       42.3222100000       15.6499452306        1.5945020000
Ga       37.7760020000       11.9676061343        4.7835004055
Ga       40.3685020000       12.8881902180        3.1890020000
 N       39.7297100000       11.9676061343        4.7835004055
 N       42.3222100000       12.8881902180        3.1890020000
Ga       37.7760020000       14.7293611470        6.3780004055
Ga       40.3685020000       15.6499452306        4.7835020000
 N       39.7297100000       14.7293611470        6.3780004055
 N       42.3222100000       15.6499452306        4.7835020000
Ga       37.7760020000       11.9676061343        7.9725004055
Ga       40.3685020000       12.8881902180        6.3780020000
 N       39.7297100000       11.9676061343        7.9725004055
 N       42.3222100000       12.8881902180        6.3780020000
Ga       37.7760020000       14.7293611470        9.5670004055
Ga       40.3685020000       15.6499452306        7.9725020000
 N       39.7297100000       14.7293611470        9.5670004055
 N       42.3222100000       15.6499452306        7.9725020000
Ga       37.7760020000       11.9676061343       11.1615004055
Ga       40.3685020000       12.8881902180        9.5670020000
 N       39.7297100000       11.9676061343       11.1615004055
 N       42.3222100000       12.8881902180        9.5670020000
Ga       37.7760020000       14.7293611470       12.7560004055
Ga       40.3685020000       15.6499452306       11.1615020000
 N       39.7297100000       14.7293611470       12.7560004055
 N       42.3222100000       15.6499452306       11.1615020000
Ga       37.7760020000       11.9676061343       14.3505004055
Ga       40.3685020000       12.8881902180       12.7560020000
 N       39.7297100000       11.9676061343       14.3505004055
 N       42.3222100000       12.8881902180       12.7560020000
Ga       37.7760020000       14.7293611470       15.9450004055
Ga       40.3685020000       15.6499452306       14.3505020000
 N       39.7297100000       14.7293611470       15.9450004055
 N       42.3222100000       15.6499452306       14.3505020000
Ga       37.7760020000       11.9676061343       17.5395004055
Ga       40.3685020000       12.8881902180       15.9450020000
 N       39.7297100000       11.9676061343       17.5395004055
 N       42.3222100000       12.8881902180       15.9450020000
Ga       37.7760020000       14.7293611470       19.1340004055
Ga       40.3685020000       15.6499452306       17.5395020000
 N       39.7297100000       14.7293611470       19.1340004055
 N       42.3222100000       15.6499452306       17.5395020000
Ga       42.9610020000        0.9205860836        1.5945004055
Ga       45.5535020000        1.8411701673        0.0000020000
 N       44.9147100000        0.9205860836        1.5945004055
 N       47.5072100000        1.8411701673        0.0000020000
Ga       42.9610020000        3.6823410963        3.1890004055
Ga       45.5535020000        4.6029251799        1.5945020000
 N       44.9147100000        3.6823410963        3.1890004055
 N       47.5072100000        4.6029251799        1.5945020000
Ga       42.9610020000        0.9205860836        4.7835004055
Ga       45.5535020000        1.8411701673        3.1890020000
 N       44.9147100000        0.9205860836        4.7835004055
 N       47.5072100000        1.8411701673        3.1890020000
Ga       42.9610020000        3.6823410963        6.3780004055
Ga       45.5535020000        4.6029251799        4.7835020000
 N       44.9147100000        3.6823410963        6.3780004055
 N       47.5072100000        4.6029251799        4.7835020000
Ga       42.9610020000        0.9205860836        7.9725004055
Ga       45.5535020000        1.8411701673        6.3780020000
 N       44.9147100000        0.9205860836        7.9725004055
 N       47.5072100000        1.8411701673        6.3780020000
Ga       42.9610020000        3.6823410963        9.5670004055
Ga       45.5535020000        4.6029251799        7.9725020000
 N       44.9147100000        3.6823410963        9.5670004055
 N       47.5072100000        4.6029251799        7.9725020000
Ga       42.9610020000        0.9205860836       11.1615004055
Ga       45.5535020000        1.8411701673        9.5670020000
 N       44.9147100000        0.9205860836       11.1615004055
 N       47.5072100000        1.8411701673        9.5670020000
Ga       42.9610020000        3.6823410963       12.7560004055
Ga       45.5535020000        4.6029251799       11.1615020000
 N       44.9147100000        3.6823410963       12.7560004055
 N       47.5072100000        4.6029251799       11.1615020000
Ga       42.9610020000        0.9205860836       14.3505004055
Ga       45.5535020000        1.8411701673       12.7560020000
 N       44.9147100000        0.9205860836       14.3505004055
 N       47.5072100000        1.8411701673       12.7560020000
Ga       42.9610020000        3.6823410963       15.9450004055
Ga       45.5535020000        4.6029251799       14.3505020000
 N       44.9147100000        3.6823410963       15.9450004055
 N       47.5072100000        4.6029251799       14.3505020000
Ga       42.9610020000        0.9205860836       17.5395004055
Ga       45.5535020000        1.8411701673       15.9450020000
 N       44.9147100000        0.9205860836       17.5395004055
 N       47.5072100000        1.8411701673       15.9450020000
Ga       42.9610020000        3.6823410963       19.1340004055
Ga       45.5535020000        4.6029251799       17.5395020000
 N       44.9147100000        3.6823410963       19.1340004055
 N       47.5072100000        4.6029251799       17.5395020000
Ga       42.9610020000        6.4440961090        1.5945004055
Ga       45.5535020000        7.3646801926        0.0000020000
 N       44.9147100000        6.4440961090        1.5945004055
 N       47.5072100000        7.3646801926        0.0000020000
Ga       42.9610020000        9.2058511216        3.1890004055
Ga       45.5535020000       10.1264352053        1.5945020000
 N       44.9147100000        9.2058511216        3.1890004055
 N       47.5072100000       10.1264352053        1.5945020000
Ga       42.9610020000        6.4440961090        4.7835004055
Ga       45.5535020000        7.3646801926        3.1890020000
 N       44.9147100000        6.4440961090        4.7835004055
 N       47.5072100000        7.3646801926        3.1890020000
Ga       42.9610020000        9.2058511216        6.3780004055
Ga       45.5535020000       10.1264352053        4.7835020000
 N       44.9147100000        9.2058511216        6.3780004055
 N       47.5072100000       10.1264352053        4.7835020000
Ga       42.9610020000        6.4440961090        7.9725004055
Ga       45.5535020000        7.3646801926        6.3780020000
 N       44.9147100000        6.4440961090        7.9725004055
 N       47.5072100000        7.3646801926        6.3780020000
Ga       42.9610020000        9.2058511216        9.5670004055
Ga       45.5535020000       10.1264352053        7.9725020000
 N       44.9147100000        9.2058511216        9.5670004055
 N       47.5072100000       10.1264352053        7.9725020000
Ga       42.9610020000        6.4440961090       11.1615004055
Ga       45.5535020000        7.3646801926        9.5670020000
 N       44.9147100000        6.4440961090       11.1615004055
 N       47.5072100000        7.3646801926        9.5670020000
Ga       42.9610020000        9.2058511216       12.7560004055
Ga       45.5535020000       10.1264352053       11.1615020000
 N       44.9147100000        9.2058511216       12.7560004055
 N       47.5072100000       10.1264352053       11.1615020000
Ga       42.9610020000        6.4440961090       14.3505004055
Ga       45.5535020000        7.3646801926       12.7560020000
 N       44.9147100000        6.4440961090       14.3505004055
 N       47.5072100000        7.3646801926       12.7560020000
Ga       42.9610020000        9.2058511216       15.9450004055
Ga       45.5535020000       10.1264352053       14.3505020000
 N       44.9147100000        9.2058511216       15.9450004055
 N       47.5072100000       10.1264352053       14.3505020000
Ga       42.9610020000        6.4440961090       17.5395004055
Ga       45.5535020000        7.3646801926       15.9450020000
 N       44.9147100000        6.4440961090       17.5395004055
 N       47.5072100000        7.3646801926       15.9450020000
Ga       42.9610020000        9.2058511216       19.1340004055
Ga       45.5535020000       10.1264352053       17.5395020000
 N       44.9147100000        9.2058511216       19.1340004055
 N       47.5072100000       10.1264352053       17.5395020000
Ga       42.9610020000       11.9676061343        1.5945004055
Ga       45.5535020000       12.8881902180        0.0000020000
 N       44.9147100000       11.9676061343        1.5945004055
 N       47.5072100000       12.8881902180        0.0000020000
Ga       42.9610020000       14.7293611470        3.1890004055
Ga       45.5535020000       15.6499452306        1.5945020000
 N       44.9147100000       14.7293611470        3.1890004055
 N       47.5072100000       15.6499452306        1.5945020000
Ga       42.9610020000       11.9676061343        4.7835004055
Ga       45.5535020000       12.8881902180        3.1890020000
 N       44.9147100000       11.9676061343        4.7835004055
 N       47.5072100000       12.8881902180        3.1890020000
Ga       42.9610020000       14.7293611470        6.3780004055
Ga       45.5535020000       15.6499452306        4.7835020000
 N       44.9147100000       14.7293611470        6.3780004055
 N       47.5072100000       15.6499452306        4.7835020000
Ga       42.9610020000       11.9676061343        7.9725004055
Ga       45.5535020000       12.8881902180        6.3780020000
 N       44.9147100000       11.9676061343        7.9725004055
 N       47.5072100000       12.8881902180        6.3780020000
Ga       42.9610020000       14.7293611470        9.5670004055
Ga       45.5535020000       15.6499452306        7.9725020000
 N       44.9147100000       14.7293611470        9.5670004055
 N       47.5072100000       15.6499452306        7.9725020000
Ga       42.9610020000       11.9676061343       11.1615004055
Ga       45.5535020000       12.8881902180        9.5670020000
 N       44.9147100000       11.9676061343       11.1615004055
 N       47.5072100000       12.8881902180        9.5670020000
Ga       42.9610020000       14.7293611470       12.7560004055
Ga       45.5535020000       15.6499452306       11.1615020000
 N       44.9147100000       14.7293611470       12.7560004055
 N       47.5072100000       15.6499452306       11.1615020000
Ga       42.9610020000       11.9676061343       14.3505004055
Ga       45.5535020000       12.8881902180       12.7560020000
 N       44.9147100000       11.9676061343       14.3505004055
 N       47.5072100000       12.8881902180       12.7560020000
Ga       42.9610020000       14.7293611470       15.9450004055
Ga       45.5535020000       15.6499452306       14.3505020000
 N       44.9147100000       14.7293611470       15.9450004055
 N       47.5072100000       15.6499452306       14.3505020000
Ga       42.9610020000       11.9676061343       17.5395004055
Ga       45.5535020000       12.8881902180       15.9450020000
 N       44.9147100000       11.9676061343       17.5395004055
 N       47.5072100000       12.8881902180       15.9450020000
Ga       42.9610020000       14.7293611470       19.1340004055
Ga       45.5535020000       15.6499452306       17.5395020000
 N       44.9147100000       14.7293611470       19.1340004055
 N       47.5072100000       15.6499452306       17.5395020000
Ga       48.1460020000        0.9205860836        1.5945004055
Ga       50.7385020000        1.8411701673        0.0000020000
 N       50.0997100000        0.9205860836        1.5945004055
 N       52.6922100000        1.8411701673        0.0000020000
Ga       48.1460020000        3.6823410963        3.1890004055
Ga       50.7385020000        4.6029251799        1.5945020000
 N       50.0997100000        3.6823410963        3.1890004055
 N       52.6922100000        4.6029251799        1.5945020000
Ga       48.1460020000        0.9205860836        4.7835004055
Ga       50.7385020000        1.8411701673        3.1890020000
 N       50.0997100000        0.9205860836        4.7835004055
 N       52.6922100000        1.8411701673        3.1890020000
Ga       48.1460020000        3.6823410963        6.3780004055
Ga       50.7385020000        4.6029251799        4.7835020000
 N       50.0997100000        3.6823410963        6.3780004055
 N       52.6922100000        4.6029251799        4.7835020000
Ga       48.1460020000        0.9205860836        7.9725004055
Ga       50.7385020000        1.8411701673        6.3780020000
 N       50.0997100000        0.9205860836        7.9725004055
 N       52.6922100000        1.8411701673        6.3780020000
Ga       48.1460020000        3.6823410963        9.5670004055
Ga       50.7385020000        4.6029251799        7.9725020000
 N       50.0997100000        3.6823410963        9.5670004055
 N       52.6922100000        4.6029251799        7.9725020000
Ga       48.1460020000        0.9205860836       11.1615004055
Ga       50.7385020000        1.8411701673        9.5670020000
 N       50.0997100000        0.9205860836       11.1615004055
 N       52.6922100000        1.8411701673        9.5670020000
Ga       48.1460020000        3.6823410963       12.7560004055
Ga       50.7385020000        4.6029251799       11.1615020000
 N       50.0997100000        3.6823410963       12.7560004055
 N       52.6922100000        4.6029251799       11.1615020000
Ga       48.1460020000        0.9205860836       14.3505004055
Ga       50.7385020000        1.8411701673       12.7560020000
 N       50.0997100000        0.9205860836       14.3505004055
 N       52.6922100000        1.8411701673       12.7560020000
Ga       48.1460020000        3.6823410963       15.9450004055
Ga       50.7385020000        4.6029251799       14.3505020000
 N       50.0997100000        3.6823410963       15.9450004055
 N       52.6922100000        4.6029251799       14.3505020000
Ga       48.1460020000        0.9205860836       17.5395004055
Ga       50.7385020000        1.8411701673       15.9450020000
 N       50.0997100000        0.9205860836       17.5395004055
 N       52.6922100000        1.8411701673       15.9450020000
Ga       48.1460020000        3.6823410963       19.1340004055
Ga       50.7385020000        4.6029251799       17.5395020000
 N       50.0997100000        3.6823410963       19.1340004055
 N       52.6922100000        4.6029251799       17.5395020000
Ga       48.1460020000        6.4440961090        1.5945004055
Ga       50.7385020000        7.3646801926        0.0000020000
 N       50.0997100000        6.4440961090        1.5945004055
 N       52.6922100000        7.3646801926        0.0000020000
Ga       48.1460020000        9.2058511216        3.1890004055
Ga       50.7385020000       10.1264352053        1.5945020000
 N       50.0997100000        9.2058511216        3.1890004055
 N       52.6922100000       10.1264352053        1.5945020000
Ga       48.1460020000        6.4440961090        4.7835004055
Ga       50.7385020000        7.3646801926        3.1890020000
 N       50.0997100000        6.4440961090        4.7835004055
 N       52.6922100000        7.3646801926        3.1890020000
Ga       48.1460020000        9.2058511216        6.3780004055
Ga       50.7385020000       10.1264352053        4.7835020000
 N       50.0997100000        9.2058511216        6.3780004055
 N       52.6922100000       10.1264352053        4.7835020000
Ga       48.1460020000        6.4440961090        7.9725004055
Ga       50.7385020000        7.3646801926        6.3780020000
 N       50.0997100000        6.4440961090        7.9725004055
 N       52.6922100000        7.3646801926        6.3780020000
Ga       48.1460020000        9.2058511216        9.5670004055
Ga       50.7385020000       10.1264352053        7.9725020000
 N       50.0997100000        9.2058511216        9.5670004055
 N       52.6922100000       10.1264352053        7.9725020000
Ga       48.1460020000        6.4440961090       11.1615004055
Ga       50.7385020000        7.3646801926        9.5670020000
 N       50.0997100000        6.4440961090       11.1615004055
 N       52.6922100000        7.3646801926        9.5670020000
Ga       48.1460020000        9.2058511216       12.7560004055
Ga       50.7385020000       10.1264352053       11.1615020000
 N       50.0997100000        9.2058511216       12.7560004055
 N       52.6922100000       10.1264352053       11.1615020000
Ga       48.1460020000        6.4440961090       14.3505004055
Ga       50.7385020000        7.3646801926       12.7560020000
 N       50.0997100000        6.4440961090       14.3505004055
 N       52.6922100000        7.3646801926       12.7560020000
Ga       48.1460020000        9.2058511216       15.9450004055
Ga       50.7385020000       10.1264352053       14.3505020000
 N       50.0997100000        9.2058511216       15.9450004055
 N       52.6922100000       10.1264352053       14.3505020000
Ga       48.1460020000        6.4440961090       17.5395004055
Ga       50.7385020000        7.3646801926       15.9450020000
 N       50.0997100000        6.4440961090       17.5395004055
 N       52.6922100000        7.3646801926       15.9450020000
Ga       48.1460020000        9.2058511216       19.1340004055
Ga       50.7385020000       10.1264352053       17.5395020000
 N       50.0997100000        9.2058511216       19.1340004055
 N       52.6922100000       10.1264352053       17.5395020000
Ga       48.1460020000       11.9676061343        1.5945004055
Ga       50.7385020000       12.8881902180        0.0000020000
 N       50.0997100000       11.9676061343        1.5945004055
 N       52.6922100000       12.8881902180        0.0000020000
Ga       48.1460020000       14.7293611470        3.1890004055
Ga       50.7385020000       15.6499452306        1.5945020000
 N       50.0997100000       14.7293611470        3.1890004055
 N       52.6922100000       15.6499452306        1.5945020000
Ga       48.1460020000       11.9676061343        4.7835004055
Ga       50.7385020000       12.8881902180        3.1890020000
 N       50.0997100000       11.9676061343        4.7835004055
 N       52.6922100000       12.8881902180        3.1890020000
Ga       48.1460020000       14.7293611470        6.3780004055
Ga       50.7385020000       15.6499452306        4.7835020000
 N       50.0997100000       14.7293611470        6.3780004055
 N       52.6922100000       15.6499452306        4.7835020000
Ga       48.1460020000       11.9676061343        7.9725004055
Ga       50.7385020000       12.8881902180        6.3780020000
 N       50.0997100000       11.9676061343        7.9725004055
 N       52.6922100000       12.8881902180        6.3780020000
Ga       48.1460020000       14.7293611470        9.5670004055
Ga       50.7385020000       15.6499452306        7.9725020000
 N       50.0997100000       14.7293611470        9.5670004055
 N       52.6922100000       15.6499452306        7.9725020000
Ga       48.1460020000       11.9676061343       11.1615004055
Ga       50.7385020000       12.8881902180        9.5670020000
 N       50.0997100000       11.9676061343       11.1615004055
 N       52.6922100000       12.8881902180        9.5670020000
Ga       48.1460020000       14.7293611470       12.7560004055
Ga       50.7385020000       15.6499452306       11.1615020000
 N       50.0997100000       14.7293611470       12.7560004055
 N       52.6922100000       15.6499452306       11.1615020000
Ga       48.1460020000       11.9676061343       14.3505004055
Ga       50.7385020000       12.8881902180       12.7560020000
 N       50.0997100000       11.9676061343       14.3505004055
 N       52.6922100000       12.8881902180       12.7560020000
Ga       48.1460020000       14.7293611470       15.9450004055
Ga       50.7385020000       15.6499452306       14.3505020000
 N       50.0997100000       14.7293611470       15.9450004055
 N       52.6922100000       15.6499452306       14.3505020000
Ga       48.1460020000       11.9676061343       17.5395004055
Ga       50.7385020000       12.8881902180       15.9450020000
 N       50.0997100000       11.9676061343       17.5395004055
 N       52.6922100000       12.8881902180       15.9450020000
Ga       48.1460020000       14.7293611470       19.1340004055
Ga       50.7385020000       15.6499452306       17.5395020000
 N       50.0997100000       14.7293611470       19.1340004055
 N       52.6922100000       15.6499452306       17.5395020000
Ga       53.3310020000        0.9205860836        1.5945004055
Ga       55.9235020000        1.8411701673        0.0000020000
 N       55.2847100000        0.9205860836        1.5945004055
 N       57.8772100000        1.8411701673        0.0000020000
Ga       53.3310020000        3.6823410963        3.1890004055
Ga       55.9235020000        4.6029251799        1.5945020000
 N       55.2847100000        3.6823410963        3.1890004055
 N       57.8772100000        4.6029251799        1.5945020000
Ga       53.3310020000        0.9205860836        4.7835004055
Ga       55.9235020000        1.8411701673        3.1890020000
 N       55.2847100000        0.9205860836        4.7835004055
 N       57.8772100000        1.8411701673        3.1890020000
Ga       53.3310020000        3.6823410963        6.3780004055
Ga       55.9235020000        4.6029251799        4.7835020000
 N       55.2847100000        3.6823410963        6.3780004055
 N       57.8772100000        4.6029251799        4.7835020000
Ga       53.3310020000        0.9205860836        7.9725004055
Ga       55.9235020000        1.8411701673        6.3780020000
 N       55.2847100000        0.9205860836        7.9725004055
 N       57.8772100000        1.8411701673        6.3780020000
Ga       53.3310020000        3.6823410963        9.5670004055
Ga       55.9235020000        4.6029251799        7.9725020000
 N       55.2847100000        3.6823410963        9.5670004055
 N       57.8772100000        4.6029251799        7.9725020000
Ga       53.3310020000        0.9205860836       11.1615004055
Ga       55.9235020000        1.8411701673        9.5670020000
 N       55.2847100000        0.9205860836       11.1615004055
 N       57.8772100000        1.8411701673        9.5670020000
Ga       53.3310020000        3.6823410963       12.7560004055
Ga       55.9235020000        4.6029251799       11.1615020000
 N       55.2847100000        3.6823410963       12.7560004055
 N       57.8772100000        4.6029251799       11.1615020000
Ga       53.3310020000        0.9205860836       14.3505004055
Ga       55.9235020000        1.8411701673       12.7560020000
 N       55.2847100000        0.9205860836       14.3505004055
 N       57.8772100000        1.8411701673       12.7560020000
Ga       53.3310020000        3.6823410963       15.9450004055
Ga       55.9235020000        4.6029251799       14.3505020000
 N       55.2847100000        3.6823410963       15.9450004055
 N       57.8772100000        4.6029251799       14.3505020000
Ga       53.3310020000        0.9205860836       17.5395004055
Ga       55.9235020000        1.8411701673       15.9450020000
 N       55.2847100000        0.9205860836       17.5395004055
 N       57.8772100000        1.8411701673       15.9450020000
Ga       53.3310020000        3.6823410963       19.1340004055
Ga       55.9235020000        4.6029251799       17.5395020000
 N       55.2847100000        3.6823410963       19.1340004055
 N       57.8772100000        4.6029251799       17.5395020000
Ga       53.3310020000        6.4440961090        1.5945004055
Ga       55.9235020000        7.3646801926        0.0000020000
 N       55.2847100000        6.4440961090        1.5945004055
 N       57.8772100000        7.3646801926        0.0000020000
Ga       53.3310020000        9.2058511216        3.1890004055
Ga       55.9235020000       10.1264352053        1.5945020000
 N       55.2847100000        9.2058511216        3.1890004055
 N       57.8772100000       10.1264352053        1.5945020000
Ga       53.3310020000        6.4440961090        4.7835004055
Ga       55.9235020000        7.3646801926        3.1890020000
 N       55.2847100000        6.4440961090        4.7835004055
 N       57.8772100000        7.3646801926        3.1890020000
Ga       53.3310020000        9.2058511216        6.3780004055
Ga       55.9235020000       10.1264352053        4.7835020000
 N       55.2847100000        9.2058511216        6.3780004055
 N       57.8772100000       10.1264352053        4.7835020000
Ga       53.3310020000        6.4440961090        7.9725004055
Ga       55.9235020000        7.3646801926        6.3780020000
 N       55.2847100000        6.4440961090        7.9725004055
 N       57.8772100000        7.3646801926        6.3780020000
Ga       53.3310020000        9.2058511216        9.5670004055
Ga       55.9235020000       10.1264352053        7.9725020000
 N       55.2847100000        9.2058511216        9.5670004055
 N       57.8772100000       10.1264352053        7.9725020000
Ga       53.3310020000        6.4440961090       11.1615004055
Ga       55.9235020000        7.3646801926        9.5670020000
 N       55.2847100000        6.4440961090       11.1615004055
 N       57.8772100000        7.3646801926        9.5670020000
Ga       53.3310020000        9.2058511216       12.7560004055
Ga       55.9235020000       10.1264352053       11.1615020000
 N       55.2847100000        9.2058511216       12.7560004055
 N       57.8772100000       10.1264352053       11.1615020000
Ga       53.3310020000        6.4440961090       14.3505004055
Ga       55.9235020000        7.3646801926       12.7560020000
 N       55.2847100000        6.4440961090       14.3505004055
 N       57.8772100000        7.3646801926       12.7560020000
Ga       53.3310020000        9.2058511216       15.9450004055
Ga       55.9235020000       10.1264352053       14.3505020000
 N       55.2847100000        9.2058511216       15.9450004055
 N       57.8772100000       10.1264352053       14.3505020000
Ga       53.3310020000        6.4440961090       17.5395004055
Ga       55.9235020000        7.3646801926       15.9450020000
 N       55.2847100000        6.4440961090       17.5395004055
 N       57.8772100000        7.3646801926       15.9450020000
Ga       53.3310020000        9.2058511216       19.1340004055
Ga       55.9235020000       10.1264352053       17.5395020000
 N       55.2847100000        9.2058511216       19.1340004055
 N       57.8772100000       10.1264352053       17.5395020000
Ga       53.3310020000       11.9676061343        1.5945004055
Ga       55.9235020000       12.8881902180        0.0000020000
 N       55.2847100000       11.9676061343        1.5945004055
 N       57.8772100000       12.8881902180        0.0000020000
Ga       53.3310020000       14.7293611470        3.1890004055
Ga       55.9235020000       15.6499452306        1.5945020000
 N       55.2847100000       14.7293611470        3.1890004055
 N       57.8772100000       15.6499452306        1.5945020000
Ga       53.3310020000       11.9676061343        4.7835004055
Ga       55.9235020000       12.8881902180        3.1890020000
 N       55.2847100000       11.9676061343        4.7835004055
 N       57.8772100000       12.8881902180        3.1890020000
Ga       53.3310020000       14.7293611470        6.3780004055
Ga       55.9235020000       15.6499452306        4.7835020000
 N       55.2847100000       14.7293611470        6.3780004055
 N       57.8772100000       15.6499452306        4.7835020000
Ga       53.3310020000       11.9676061343        7.9725004055
Ga       55.9235020000       12.8881902180        6.3780020000
 N       55.2847100000       11.9676061343        7.9725004055
 N       57.8772100000       12.8881902180        6.3780020000
Ga       53.3310020000       14.7293611470        9.5670004055
Ga       55.9235020000       15.6499452306        7.9725020000
 N       55.2847100000       14.7293611470        9.5670004055
 N       57.8772100000       15.6499452306        7.9725020000
Ga       53.3310020000       11.9676061343       11.1615004055
Ga       55.9235020000       12.8881902180        9.5670020000
 N       55.2847100000       11.9676061343       11.1615004055
 N       57.8772100000       12.8881902180        9.5670020000
Ga       53.3310020000       14.7293611470       12.7560004055
Ga       55.9235020000       15.6499452306       11.1615020000
 N       55.2847100000       14.7293611470       12.7560004055
 N       57.8772100000       15.6499452306       11.1615020000
Ga       53.3310020000       11.9676061343       14.3505004055
Ga       55.9235020000       12.8881902180       12.7560020000
 N       55.2847100000       11.9676061343       14.3505004055
 N       57.8772100000       12.8881902180       12.7560020000
Ga       53.3310020000       14.7293611470       15.9450004055
Ga       55.9235020000       15.6499452306       14.3505020000
 N       55.2847100000       14.7293611470       15.9450004055
 N       57.8772100000       15.6499452306       14.3505020000
Ga       53.3310020000       11.9676061343       17.5395004055
Ga       55.9235020000       12.8881902180       15.9450020000
 N       55.2847100000       11.9676061343       17.5395004055
 N       57.8772100000       12.8881902180       15.9450020000
Ga       53.3310020000       14.7293611470       19.1340004055
Ga       55.9235020000       15.6499452306       17.5395020000
 N       55.2847100000       14.7293611470       19.1340004055
 N       57.8772100000       15.6499452306       17.5395020000
Ga       58.5160020000        0.9205860836        1.5945004055
Ga       61.1085020000        1.8411701673        0.0000020000
 N       60.4697100000        0.9205860836        1.5945004055
 N       63.0622100000        1.8411701673        0.0000020000
Ga       58.5160020000        3.6823410963        3.1890004055
Ga       61.1085020000        4.6029251799        1.5945020000
 N       60.4697100000        3.6823410963        3.1890004055
 N       63.0622100000        4.6029251799        1.5945020000
Ga       58.5160020000        0.9205860836        4.7835004055
Ga       61.1085020000        1.8411701673        3.1890020000
 N       60.4697100000        0.9205860836        4.7835004055
 N       63.0622100000        1.8411701673        3.1890020000
Ga       58.5160020000        3.6823410963        6.3780004055
Ga       61.1085020000        4.6029251799        4.7835020000
 N       60.4697100000        3.6823410963        6.3780004055
 N       63.0622100000        4.6029251799        4.7835020000
Ga       58.5160020000        0.9205860836        7.9725004055
Ga       61.1085020000        1.8411701673        6.3780020000
 N       60.4697100000        0.9205860836        7.9725004055
 N       63.0622100000        1.8411701673        6.3780020000
Ga       58.5160020000        3.6823410963        9.5670004055
Ga       61.1085020000        4.6029251799        7.9725020000
 N       60.4697100000        3.6823410963        9.5670004055
 N       63.0622100000        4.6029251799        7.9725020000
Ga       58.5160020000        0.9205860836       11.1615004055
Ga       61.1085020000        1.8411701673        9.5670020000
 N       60.4697100000        0.9205860836       11.1615004055
 N       63.0622100000        1.8411701673        9.5670020000
Ga       58.5160020000        3.6823410963       12.7560004055
Ga       61.1085020000        4.6029251799       11.1615020000
 N       60.4697100000        3.6823410963       12.7560004055
 N       63.0622100000        4.6029251799       11.1615020000
Ga       58.5160020000        0.9205860836       14.3505004055
Ga       61.1085020000        1.8411701673       12.7560020000
 N       60.4697100000        0.9205860836       14.3505004055
 N       63.0622100000        1.8411701673       12.7560020000
Ga       58.5160020000        3.6823410963       15.9450004055
Ga       61.1085020000        4.6029251799       14.3505020000
 N       60.4697100000        3.6823410963       15.9450004055
 N       63.0622100000        4.6029251799       14.3505020000
Ga       58.5160020000        0.9205860836       17.5395004055
Ga       61.1085020000        1.8411701673       15.9450020000
 N       60.4697100000        0.9205860836       17.5395004055
 N       63.0622100000        1.8411701673       15.9450020000
Ga       58.5160020000        3.6823410963       19.1340004055
Ga       61.1085020000        4.6029251799       17.5395020000
 N       60.4697100000        3.6823410963       19.1340004055
 N       63.0622100000        4.6029251799       17.5395020000
Ga       58.5160020000        6.4440961090        1.5945004055
Ga       61.1085020000        7.3646801926        0.0000020000
 N       60.4697100000        6.4440961090        1.5945004055
 N       63.0622100000        7.3646801926        0.0000020000
Ga       58.5160020000        9.2058511216        3.1890004055
Ga       61.1085020000       10.1264352053        1.5945020000
 N       60.4697100000        9.2058511216        3.1890004055
 N       63.0622100000       10.1264352053        1.5945020000
Ga       58.5160020000        6.4440961090        4.7835004055
Ga       61.1085020000        7.3646801926        3.1890020000
 N       60.4697100000        6.4440961090        4.7835004055
 N       63.0622100000        7.3646801926        3.1890020000
Ga       58.5160020000        9.2058511216        6.3780004055
Ga       61.1085020000       10.1264352053        4.7835020000
 N       60.4697100000        9.2058511216        6.3780004055
 N       63.0622100000       10.1264352053        4.7835020000
Ga       58.5160020000        6.4440961090        7.9725004055
Ga       61.1085020000        7.3646801926        6.3780020000
 N       60.4697100000        6.4440961090        7.9725004055
 N       63.0622100000        7.3646801926        6.3780020000
Ga       58.5160020000        9.2058511216        9.5670004055
Ga       61.1085020000       10.1264352053        7.9725020000
 N       60.4697100000        9.2058511216        9.5670004055
 N       63.0622100000       10.1264352053        7.9725020000
Ga       58.5160020000        6.4440961090       11.1615004055
Ga       61.1085020000        7.3646801926        9.5670020000
 N       60.4697100000        6.4440961090       11.1615004055
 N       63.0622100000        7.3646801926        9.5670020000
Ga       58.5160020000        9.2058511216       12.7560004055
Ga       61.1085020000       10.1264352053       11.1615020000
 N       60.4697100000        9.2058511216       12.7560004055
 N       63.0622100000       10.1264352053       11.1615020000
Ga       58.5160020000        6.4440961090       14.3505004055
Ga       61.1085020000        7.3646801926       12.7560020000
 N       60.4697100000        6.4440961090       14.3505004055
 N       63.0622100000        7.3646801926       12.7560020000
Ga       58.5160020000        9.2058511216       15.9450004055
Ga       61.1085020000       10.1264352053       14.3505020000
 N       60.4697100000        9.2058511216       15.9450004055
 N       63.0622100000       10.1264352053       14.3505020000
Ga       58.5160020000        6.4440961090       17.5395004055
Ga       61.1085020000        7.3646801926       15.9450020000
 N       60.4697100000        6.4440961090       17.5395004055
 N       63.0622100000        7.3646801926       15.9450020000
Ga       58.5160020000        9.2058511216       19.1340004055
Ga       61.1085020000       10.1264352053       17.5395020000
 N       60.4697100000        9.2058511216       19.1340004055
 N       63.0622100000       10.1264352053       17.5395020000
Ga       58.5160020000       11.9676061343        1.5945004055
Ga       61.1085020000       12.8881902180        0.0000020000
 N       60.4697100000       11.9676061343        1.5945004055
 N       63.0622100000       12.8881902180        0.0000020000
Ga       58.5160020000       14.7293611470        3.1890004055
Ga       61.1085020000       15.6499452306        1.5945020000
 N       60.4697100000       14.7293611470        3.1890004055
 N       63.0622100000       15.6499452306        1.5945020000
Ga       58.5160020000       11.9676061343        4.7835004055
Ga       61.1085020000       12.8881902180        3.1890020000
 N       60.4697100000       11.9676061343        4.7835004055
 N       63.0622100000       12.8881902180        3.1890020000
Ga       58.5160020000       14.7293611470        6.3780004055
Ga       61.1085020000       15.6499452306        4.7835020000
 N       60.4697100000       14.7293611470        6.3780004055
 N       63.0622100000       15.6499452306        4.7835020000
Ga       58.5160020000       11.9676061343        7.9725004055
Ga       61.1085020000       12.8881902180        6.3780020000
 N       60.4697100000       11.9676061343        7.9725004055
 N       63.0622100000       12.8881902180        6.3780020000
Ga       58.5160020000       14.7293611470        9.5670004055
Ga       61.1085020000       15.6499452306        7.9725020000
 N       60.4697100000       14.7293611470        9.5670004055
 N       63.0622100000       15.6499452306        7.9725020000
Ga       58.5160020000       11.9676061343       11.1615004055
Ga       61.1085020000       12.8881902180        9.5670020000
 N       60.4697100000       11.9676061343       11.1615004055
 N       63.0622100000       12.8881902180        9.5670020000
Ga       58.5160020000       14.7293611470       12.7560004055
Ga       61.1085020000       15.6499452306       11.1615020000
 N       60.4697100000       14.7293611470       12.7560004055
 N       63.0622100000       15.6499452306       11.1615020000
Ga       58.5160020000       11.9676061343       14.3505004055
Ga       61.1085020000       12.8881902180       12.7560020000
 N       60.4697100000       11.9676061343       14.3505004055
 N       63.0622100000       12.8881902180       12.7560020000
Ga       58.5160020000       14.7293611470       15.9450004055
Ga       61.1085020000       15.6499452306       14.3505020000
 N       60.4697100000       14.7293611470       15.9450004055
 N       63.0622100000       15.6499452306       14.3505020000
Ga       58.5160020000       11.9676061343       17.5395004055
Ga       61.1085020000       12.8881902180       15.9450020000
 N       60.4697100000       11.9676061343       17.5395004055
 N       63.0622100000       12.8881902180       15.9450020000
Ga       58.5160020000       14.7293611470       19.1340004055
Ga       61.1085020000       15.6499452306       17.5395020000
 N       60.4697100000       14.7293611470       19.1340004055
 N       63.0622100000       15.6499452306       17.5395020000
Ga       63.7010020000        0.9205860836        1.5945004055
Ga       66.2935020000        1.8411701673        0.0000020000
 N       65.6547100000        0.9205860836        1.5945004055
 N       68.2472100000        1.8411701673        0.0000020000
Ga       63.7010020000        3.6823410963        3.1890004055
Ga       66.2935020000        4.6029251799        1.5945020000
 N       65.6547100000        3.6823410963        3.1890004055
 N       68.2472100000        4.6029251799        1.5945020000
Ga       63.7010020000        0.9205860836        4.7835004055
Ga       66.2935020000        1.8411701673        3.1890020000
 N       65.6547100000        0.9205860836        4.7835004055
 N       68.2472100000        1.8411701673        3.1890020000
Ga       63.7010020000        3.6823410963        6.3780004055
Ga       66.2935020000        4.6029251799        4.7835020000
 N       65.6547100000        3.6823410963        6.3780004055
 N       68.2472100000        4.6029251799        4.7835020000
Ga       63.7010020000        0.9205860836        7.9725004055
Ga       66.2935020000        1.8411701673        6.3780020000
 N       65.6547100000        0.9205860836        7.9725004055
 N       68.2472100000        1.8411701673        6.3780020000
Ga       63.7010020000        3.6823410963        9.5670004055
Ga       66.2935020000        4.6029251799        7.9725020000
 N       65.6547100000        3.6823410963        9.5670004055
 N       68.2472100000        4.6029251799        7.9725020000
Ga       63.7010020000        0.9205860836       11.1615004055
Ga       66.2935020000        1.8411701673        9.5670020000
 N       65.6547100000        0.9205860836       11.1615004055
 N       68.2472100000        1.8411701673        9.5670020000
Ga       63.7010020000        3.6823410963       12.7560004055
Ga       66.2935020000        4.6029251799       11.1615020000
 N       65.6547100000        3.6823410963       12.7560004055
 N       68.2472100000        4.6029251799       11.1615020000
Ga       63.7010020000        0.9205860836       14.3505004055
Ga       66.2935020000        1.8411701673       12.7560020000
 N       65.6547100000        0.9205860836       14.3505004055
 N       68.2472100000        1.8411701673       12.7560020000
Ga       63.7010020000        3.6823410963       15.9450004055
Ga       66.2935020000        4.6029251799       14.3505020000
 N       65.6547100000        3.6823410963       15.9450004055
 N       68.2472100000        4.6029251799       14.3505020000
Ga       63.7010020000        0.9205860836       17.5395004055
Ga       66.2935020000        1.8411701673       15.9450020000
 N       65.6547100000        0.9205860836       17.5395004055
 N       68.2472100000        1.8411701673       15.9450020000
Ga       63.7010020000        3.6823410963       19.1340004055
Ga       66.2935020000        4.6029251799       17.5395020000
 N       65.6547100000        3.6823410963       19.1340004055
 N       68.2472100000        4.6029251799       17.5395020000
Ga       63.7010020000        6.4440961090        1.5945004055
Ga       66.2935020000        7.3646801926        0.0000020000
 N       65.6547100000        6.4440961090        1.5945004055
 N       68.2472100000        7.3646801926        0.0000020000
Ga       63.7010020000        9.2058511216        3.1890004055
Ga       66.2935020000       10.1264352053        1.5945020000
 N       65.6547100000        9.2058511216        3.1890004055
 N       68.2472100000       10.1264352053        1.5945020000
Ga       63.7010020000        6.4440961090        4.7835004055
Ga       66.2935020000        7.3646801926        3.1890020000
 N       65.6547100000        6.4440961090        4.7835004055
 N       68.2472100000        7.3646801926        3.1890020000
Ga       63.7010020000        9.2058511216        6.3780004055
Ga       66.2935020000       10.1264352053        4.7835020000
 N       65.6547100000        9.2058511216        6.3780004055
 N       68.2472100000       10.1264352053        4.7835020000
Ga       63.7010020000        6.4440961090        7.9725004055
Ga       66.2935020000        7.3646801926        6.3780020000
 N       65.6547100000        6.4440961090        7.9725004055
 N       68.2472100000        7.3646801926        6.3780020000
Ga       63.7010020000        9.2058511216        9.5670004055
Ga       66.2935020000       10.1264352053        7.9725020000
 N       65.6547100000        9.2058511216        9.5670004055
 N       68.2472100000       10.1264352053        7.9725020000
Ga       63.7010020000        6.4440961090       11.1615004055
Ga       66.2935020000        7.3646801926        9.5670020000
 N       65.6547100000        6.4440961090       11.1615004055
 N       68.2472100000        7.3646801926        9.5670020000
Ga       63.7010020000        9.2058511216       12.7560004055
Ga       66.2935020000       10.1264352053       11.1615020000
 N       65.6547100000        9.2058511216       12.7560004055
 N       68.2472100000       10.1264352053       11.1615020000
Ga       63.7010020000        6.4440961090       14.3505004055
Ga       66.2935020000        7.3646801926       12.7560020000
 N       65.6547100000        6.4440961090       14.3505004055
 N       68.2472100000        7.3646801926       12.7560020000
Ga       63.7010020000        9.2058511216       15.9450004055
Ga       66.2935020000       10.1264352053       14.3505020000
 N       65.6547100000        9.2058511216       15.9450004055
 N       68.2472100000       10.1264352053       14.3505020000
Ga       63.7010020000        6.4440961090       17.5395004055
Ga       66.2935020000        7.3646801926       15.9450020000
 N       65.6547100000        6.4440961090       17.5395004055
 N       68.2472100000        7.3646801926       15.9450020000
Ga       63.7010020000        9.2058511216       19.1340004055
Ga       66.2935020000       10.1264352053       17.5395020000
 N       65.6547100000        9.2058511216       19.1340004055
 N       68.2472100000       10.1264352053       17.5395020000
Ga       63.7010020000       11.9676061343        1.5945004055
Ga       66.2935020000       12.8881902180        0.0000020000
 N       65.6547100000       11.9676061343        1.5945004055
 N       68.2472100000       12.8881902180        0.0000020000
Ga       63.7010020000       14.7293611470        3.1890004055
Ga       66.2935020000       15.6499452306        1.5945020000
 N       65.6547100000       14.7293611470        3.1890004055
 N       68.2472100000       15.6499452306        1.5945020000
Ga       63.7010020000       11.9676061343        4.7835004055
Ga       66.2935020000       12.8881902180        3.1890020000
 N       65.6547100000       11.9676061343        4.7835004055
 N       68.2472100000       12.8881902180        3.1890020000
Ga       63.7010020000       14.7293611470        6.3780004055
Ga       66.2935020000       15.6499452306        4.7835020000
 N       65.6547100000       14.7293611470        6.3780004055
 N       68.2472100000       15.6499452306        4.7835020000
Ga       63.7010020000       11.9676061343        7.9725004055
Ga       66.2935020000       12.8881902180        6.3780020000
 N       65.6547100000       11.9676061343        7.9725004055
 N       68.2472100000       12.8881902180        6.3780020000
Ga       63.7010020000       14.7293611470        9.5670004055
Ga       66.2935020000       15.6499452306        7.9725020000
 N       65.6547100000       14.7293611470        9.5670004055
 N       68.2472100000       15.6499452306        7.9725020000
Ga       63.7010020000       11.9676061343       11.1615004055
Ga       66.2935020000       12.8881902180        9.5670020000
 N       65.6547100000       11.9676061343       11.1615004055
 N       68.2472100000       12.8881902180        9.5670020000
Ga       63.7010020000       14.7293611470       12.7560004055
Ga       66.2935020000       15.6499452306       11.1615020000
 N       65.6547100000       14.7293611470       12.7560004055
 N       68.2472100000       15.6499452306       11.1615020000
Ga       63.7010020000       11.9676061343       14.3505004055
Ga       66.2935020000       12.8881902180       12.7560020000
 N       65.6547100000       11.9676061343       14.3505004055
 N       68.2472100000       12.8881902180       12.7560020000
Ga       63.7010020000       14.7293611470       15.9450004055
Ga       66.2935020000       15.6499452306       14.3505020000
 N       65.6547100000       14.7293611470       15.9450004055
 N       68.2472100000       15.6499452306       14.3505020000
Ga       63.7010020000       11.9676061343       17.5395004055
Ga       66.2935020000       12.8881902180       15.9450020000
 N       65.6547100000       11.9676061343       17.5395004055
 N       68.2472100000       12.8881902180       15.9450020000
Ga       63.7010020000       14.7293611470       19.1340004055
Ga       66.2935020000       15.6499452306       17.5395020000
 N       65.6547100000       14.7293611470       19.1340004055
 N       68.2472100000       15.6499452306       17.5395020000
Ga       68.8860020000        0.9205860836        1.5945004055
Ga       68.8860020000        3.6823410963        3.1890004055
Ga       68.8860020000        0.9205860836        4.7835004055
Ga       68.8860020000        3.6823410963        6.3780004055
Ga       68.8860020000        0.9205860836        7.9725004055
Ga       68.8860020000        3.6823410963        9.5670004055
Ga       68.8860020000        0.9205860836       11.1615004055
Ga       68.8860020000        3.6823410963       12.7560004055
Ga       68.8860020000        0.9205860836       14.3505004055
Ga       68.8860020000        3.6823410963       15.9450004055
Ga       68.8860020000        0.9205860836       17.5395004055
Ga       68.8860020000        3.6823410963       19.1340004055
Ga       68.8860020000        6.4440961090        1.5945004055
Ga       68.8860020000        9.2058511216        3.1890004055
Ga       68.8860020000        6.4440961090        4.7835004055
Ga       68.8860020000        9.2058511216        6.3780004055
Ga       68.8860020000        6.4440961090        7.9725004055
Ga       68.8860020000        9.2058511216        9.5670004055
Ga       68.8860020000        6.4440961090       11.1615004055
Ga       68.8860020000        9.2058511216       12.7560004055
Ga       68.8860020000        6.4440961090       14.3505004055
Ga       68.8860020000        9.2058511216       15.9450004055
Ga       68.8860020000        6.4440961090       17.5395004055
Ga       68.8860020000        9.2058511216       19.1340004055
Ga       68.8860020000       11.9676061343        1.5945004055
Ga       68.8860020000       14.7293611470        3.1890004055
Ga       68.8860020000       11.9676061343        4.7835004055
Ga       68.8860020000       14.7293611470        6.3780004055
Ga       68.8860020000       11.9676061343        7.9725004055
Ga       68.8860020000       14.7293611470        9.5670004055
Ga       68.8860020000       11.9676061343       11.1615004055
Ga       68.8860020000       14.7293611470       12.7560004055
Ga       68.8860020000       11.9676061343       14.3505004055
Ga       68.8860020000       14.7293611470       15.9450004055
Ga       68.8860020000       11.9676061343       17.5395004055
Ga       68.8860020000       14.7293611470       19.1340004055
 H      -40.3923358885        1.4874382040        0.6126837327
 H      -40.3923353619       -0.2131183398        1.5945013873
 H      -40.3923353619        1.4874374451        2.5763177275
 H      -40.3923358885        4.2491932167        2.2071837327
 H      -40.3923353619        2.5486366729        3.1890013873
 H      -40.3923353619        4.2491924577        4.1708177275
 H      -40.3923358885        1.4874382040        3.8016837327
 H      -40.3923353619       -0.2131183398        4.7835013873
 H      -40.3923353619        1.4874374451        5.7653177275
 H      -40.3923358885        4.2491932167        5.3961837327
 H      -40.3923353619        2.5486366729        6.3780013873
 H      -40.3923353619        4.2491924577        7.3598177275
 H      -40.3923358885        1.4874382040        6.9906837327
 H      -40.3923353619       -0.2131183398        7.9725013873
 H      -40.3923353619        1.4874374451        8.9543177275
 H      -40.3923358885        4.2491932167        8.5851837327
 H      -40.3923353619        2.5486366729        9.5670013873
 H      -40.3923353619        4.2491924577       10.5488177275
 H      -40.3923358885        1.4874382040       10.1796837327
 H      -40.3923353619       -0.2131183398       11.1615013873
 H      -40.3923353619        1.4874374451       12.1433177275
 H      -40.3923358885        4.2491932167       11.7741837327
 H      -40.3923353619        2.5486366729       12.7560013873
 H      -40.3923353619        4.2491924577       13.7378177275
 H      -40.3923358885        1.4874382040       13.3686837327
 H      -40.3923353619       -0.2131183398       14.3505013873
 H      -40.3923353619        1.4874374451       15.3323177275
 H      -40.3923358885        4.2491932167       14.9631837327
 H      -40.3923353619        4.2491924577       16.9268177275
 H      -40.3923353619        2.5486366729       15.9450013873
 H      -40.3923358885        1.4874382040       16.5576837327
 H      -40.3923353619       -0.2131183398       17.5395013873
 H      -40.3923353619        1.4874374451       18.5213177275
 H      -40.3923358885        4.2491932167       18.1521837327
 H      -40.3923353619        2.5486366729       19.1340013873
 H      -40.3923353619        4.2491924577       20.1158177275
 H      -40.3923358885        7.0109482293        0.6126837327
 H      -40.3923353619        5.3103916855        1.5945013873
 H      -40.3923353619        7.0109474704        2.5763177275
 H      -40.3923358885        9.7727032420        2.2071837327
 H      -40.3923353619        8.0721466982        3.1890013873
 H      -40.3923353619        9.7727024831        4.1708177275
 H      -40.3923358885        7.0109482293        3.8016837327
 H      -40.3923353619        5.3103916855        4.7835013873
 H      -40.3923353619        7.0109474704        5.7653177275
 H      -40.3923358885        9.7727032420        5.3961837327
 H      -40.3923353619        8.0721466982        6.3780013873
 H      -40.3923353619        9.7727024831        7.3598177275
 H      -40.3923358885        7.0109482293        6.9906837327
 H      -40.3923353619        7.0109474704        8.9543177275
 H      -40.3923353619        5.3103916855        7.9725013873
 H      -40.3923358885        9.7727032420        8.5851837327
 H      -40.3923353619        9.7727024831       10.5488177275
 H      -40.3923353619        8.0721466982        9.5670013873
 H      -40.3923358885        7.0109482293       10.1796837327
 H      -40.3923353619        5.3103916855       11.1615013873
 H      -40.3923353619        7.0109474704       12.1433177275
 H      -40.3923358885        9.7727032420       11.7741837327
 H      -40.3923353619        8.0721466982       12.7560013873
 H      -40.3923353619        9.7727024831       13.7378177275
 H      -40.3923358885        7.0109482293       13.3686837327
 H      -40.3923353619        5.3103916855       14.3505013873
 H      -40.3923353619        7.0109474704       15.3323177275
 H      -40.3923358885        9.7727032420       14.9631837327
 H      -40.3923353619        8.0721466982       15.9450013873
 H      -40.3923353619        9.7727024831       16.9268177275
 H      -40.3923358885        7.0109482293       16.5576837327
 H      -40.3923353619        5.3103916855       17.5395013873
 H      -40.3923353619        7.0109474704       18.5213177275
 H      -40.3923358885        9.7727032420       18.1521837327
 H      -40.3923353619        9.7727024831       20.1158177275
 H      -40.3923353619        8.0721466982       19.1340013873
 H      -40.3923358885       12.5344582547        0.6126837327
 H      -40.3923353619       10.8339017109        1.5945013873
 H      -40.3923353619       12.5344574958        2.5763177275
 H      -40.3923358885       15.2962132673        2.2071837327
 H      -40.3923353619       13.5956567235        3.1890013873
 H      -40.3923353619       15.2962125084        4.1708177275
 H      -40.3923358885       12.5344582547        3.8016837327
 H      -40.3923353619       10.8339017109        4.7835013873
 H      -40.3923353619       12.5344574958        5.7653177275
 H      -40.3923358885       15.2962132673        5.3961837327
 H      -40.3923353619       13.5956567235        6.3780013873
 H      -40.3923353619       15.2962125084        7.3598177275
 H      -40.3923358885       12.5344582547        6.9906837327
 H      -40.3923353619       10.8339017109        7.9725013873
 H      -40.3923353619       12.5344574958        8.9543177275
 H      -40.3923358885       15.2962132673        8.5851837327
 H      -40.3923353619       13.5956567235        9.5670013873
 H      -40.3923353619       15.2962125084       10.5488177275
 H      -40.3923358885       12.5344582547       10.1796837327
 H      -40.3923353619       10.8339017109       11.1615013873
 H      -40.3923353619       12.5344574958       12.1433177275
 H      -40.3923358885       15.2962132673       11.7741837327
 H      -40.3923353619       13.5956567235       12.7560013873
 H      -40.3923353619       15.2962125084       13.7378177275
 H      -40.3923358885       12.5344582547       13.3686837327
 H      -40.3923353619       10.8339017109       14.3505013873
 H      -40.3923353619       12.5344574958       15.3323177275
 H      -40.3923358885       15.2962132673       14.9631837327
 H      -40.3923353619       13.5956567235       15.9450013873
 H      -40.3923353619       15.2962125084       16.9268177275
 H      -40.3923358885       12.5344582547       16.5576837327
 H      -40.3923353619       10.8339017109       17.5395013873
 H      -40.3923353619       12.5344574958       18.5213177275
 H      -40.3923358885       15.2962132673       18.1521837327
 H      -40.3923353619       15.2962125084       20.1158177275
 H      -40.3923353619       13.5956567235       19.1340013873
 H       70.0860020000        0.9205860836        1.5945004055
 H       70.0860020000        3.6823410963        3.1890004055
 H       70.0860020000        0.9205860836        4.7835004055
 H       70.0860020000        3.6823410963        6.3780004055
 H       70.0860020000        0.9205860836        7.9725004055
 H       70.0860020000        3.6823410963        9.5670004055
 H       70.0860020000        0.9205860836       11.1615004055
 H       70.0860020000        3.6823410963       12.7560004055
 H       70.0860020000        0.9205860836       14.3505004055
 H       70.0860020000        3.6823410963       15.9450004055
 H       70.0860020000        0.9205860836       17.5395004055
 H       70.0860020000        3.6823410963       19.1340004055
 H       70.0860020000        6.4440961090        1.5945004055
 H       70.0860020000        9.2058511216        3.1890004055
 H       70.0860020000        6.4440961090        4.7835004055
 H       70.0860020000        9.2058511216        6.3780004055
 H       70.0860020000        6.4440961090        7.9725004055
 H       70.0860020000        9.2058511216        9.5670004055
 H       70.0860020000        6.4440961090       11.1615004055
 H       70.0860020000        9.2058511216       12.7560004055
 H       70.0860020000        6.4440961090       14.3505004055
 H       70.0860020000        9.2058511216       15.9450004055
 H       70.0860020000        6.4440961090       17.5395004055
 H       70.0860020000        9.2058511216       19.1340004055
 H       70.0860020000       11.9676061343        1.5945004055
 H       70.0860020000       14.7293611470        3.1890004055
 H       70.0860020000       11.9676061343        4.7835004055
 H       70.0860020000       14.7293611470        6.3780004055
 H       70.0860020000       11.9676061343        7.9725004055
 H       70.0860020000       14.7293611470        9.5670004055
 H       70.0860020000       11.9676061343       11.1615004055
 H       70.0860020000       14.7293611470       12.7560004055
 H       70.0860020000       11.9676061343       14.3505004055
 H       70.0860020000       14.7293611470       15.9450004055
 H       70.0860020000       11.9676061343       17.5395004055
 H       70.0860020000       14.7293611470       19.1340004055
